 vasp.5.3.3 18Dez12 (build Dec 13 2014 13:36:02) complex

 executed on             LinuxIFC date 2018.11.28  11:33:05

 INCAR:
 POTCAR:   PAW_PBE Cu 05Jan2001

 POTCAR:   PAW_PBE Cu 05Jan2001
   VRHFIN =Cu: d10 p1

   TITEL  = PAW_PBE Cu 05Jan2001
   POMASS =   63.546; ZVAL   =   11.000    mass and valenz
   ENMAX  =  273.214; ENMIN  =  204.910 eV
   QCUT   =   -4.481; QGAM   =    8.962    optimization parameters

   Description
     l     E      TYP  RCUT    TYP  RCUT
     2   .000     23  2.300
     2   .000     23  2.300
     0   .000     23  2.300
     0   .000     23  2.300
     1  -.200     23  2.300
     1   .000     23  2.300
     3   .000      7   .000

 Optimization of the real space projectors (new method)

 maximal supplied QI-value         = 16.25
 optimisation between [QCUT,QGAM] = [ 11.38, 22.75] = [ 36.24,144.96] Ry
 Optimized for a Real-space Cutoff    1.52 Angstroem

   l    n(q)    QCUT    max X(q) W(low)/X(q) W(high)/X(q)  e(spline)
   2      9    11.376     4.977    0.18E-04    0.11E-04    0.50E-07
   2      9    11.376    13.467    0.17E-03    0.72E-04    0.21E-06
   0     10    11.376    13.303    0.19E-04    0.22E-05    0.11E-07
   0     10    11.376    44.613    0.60E-04    0.41E-04    0.25E-06
   1     10    11.376     5.276    0.11E-04    0.43E-05    0.26E-07
   1     10    11.376     7.322    0.51E-04    0.42E-04    0.12E-06
 PAW_PBE Cu 05Jan2001                   :

 POSCAR: MP POSCAR:
  positions in direct lattice
 exchange correlation table for  LEXCH =        8
   RHO(1)=    0.500       N(1)  =     2000
   RHO(2)=  100.500       N(2)  =     4000

 ion  position               nearest neighbor table
   1  0.000  0.000  0.000-

  LATTYP: Found a face centered cubic cell.
 ALAT       =     3.6212620000

  Lattice vectors:

 A1 = (  -1.8106310000,  -1.8106310000,   0.0000000000)
 A2 = (  -1.8106310000,   0.0000000000,  -1.8106310000)
 A3 = (   0.0000000000,  -1.8106310000,  -1.8106310000)

Analysis of symmetry for initial positions (statically):
 Subroutine PRICEL returns:
 Original cell was already a primitive cell.

 Routine SETGRP: Setting up the symmetry group for a
 face centered cubic supercell.

 Subroutine GETGRP returns: Found 48 space group operations
 (whereof 48 operations were pure point group operations)
 out of a pool of 48 trial point group operations.

The static configuration has the point symmetry O_h .

Analysis of symmetry for dynamics (positions and initial velocities):
 Subroutine PRICEL returns:
 Original cell was already a primitive cell.

 Routine SETGRP: Setting up the symmetry group for a
 face centered cubic supercell.

 Subroutine GETGRP returns: Found 48 space group operations
 (whereof 48 operations were pure point group operations)
 out of a pool of 48 trial point group operations.

The dynamic configuration has the point symmetry O_h .

 irot  :   1
 isymop:   1   0   0
           0   1   0
           0   0   1

 gtrans:     0.0000000     0.0000000     0.0000000

 ptrans:     0.0000000     0.0000000     0.0000000
 rotmap:
 (   1->   1)

[...]

 irot  :  48
 isymop:   0   0   1
           0   1   0
           1   0   0

 gtrans:     0.0000000     0.0000000     0.0000000

 ptrans:     0.0000000     0.0000000     0.0000000
 rotmap:
 (   1->   1)

 KPOINTS: k-points : CUBIC - FCC
  interpolating k-points between supplied coordinates
  k-points in reciprocal lattice
Space group operators:
 irot       det(A)        alpha          n_x          n_y          n_z        tau_x        tau_y        tau_z
    1     1.000000     0.000000     1.000000     0.000000     0.000000     0.000000     0.000000     0.000000
    2    -1.000000     0.000000     1.000000     0.000000     0.000000     0.000000     0.000000     0.000000
    3     1.000000   120.000000     0.577350     0.577350     0.577350     0.000000     0.000000     0.000000
    4    -1.000000   120.000000     0.577350     0.577350     0.577350     0.000000     0.000000     0.000000
    5     1.000000   120.000000    -0.577350    -0.577350    -0.577350     0.000000     0.000000     0.000000
    6    -1.000000   120.000000    -0.577350    -0.577350    -0.577350     0.000000     0.000000     0.000000
    7     1.000000    90.000000     1.000000     0.000000     0.000000     0.000000     0.000000     0.000000
    8    -1.000000    90.000000     1.000000     0.000000     0.000000     0.000000     0.000000     0.000000
    9     1.000000   180.000000     0.707107     0.707107     0.000000     0.000000     0.000000     0.000000
   10    -1.000000   180.000000     0.707107     0.707107     0.000000     0.000000     0.000000     0.000000
   11     1.000000    90.000000     0.000000    -1.000000     0.000000     0.000000     0.000000     0.000000
   12    -1.000000    90.000000     0.000000    -1.000000     0.000000     0.000000     0.000000     0.000000
   13     1.000000   180.000000     1.000000     0.000000     0.000000     0.000000     0.000000     0.000000
   14    -1.000000   180.000000     1.000000     0.000000     0.000000     0.000000     0.000000     0.000000
   15     1.000000   120.000000    -0.577350    -0.577350     0.577350     0.000000     0.000000     0.000000
   16    -1.000000   120.000000    -0.577350    -0.577350     0.577350     0.000000     0.000000     0.000000
   17     1.000000   120.000000     0.577350    -0.577350     0.577350     0.000000     0.000000     0.000000
   18    -1.000000   120.000000     0.577350    -0.577350     0.577350     0.000000     0.000000     0.000000
   19     1.000000    90.000000    -1.000000     0.000000     0.000000     0.000000     0.000000     0.000000
   20    -1.000000    90.000000    -1.000000     0.000000     0.000000     0.000000     0.000000     0.000000
   21     1.000000    90.000000     0.000000     0.000000     1.000000     0.000000     0.000000     0.000000
   22    -1.000000    90.000000     0.000000     0.000000     1.000000     0.000000     0.000000     0.000000
   23     1.000000   180.000000     0.707107     0.000000     0.707107     0.000000     0.000000     0.000000
   24    -1.000000   180.000000     0.707107     0.000000     0.707107     0.000000     0.000000     0.000000
   25     1.000000   120.000000    -0.577350     0.577350    -0.577350     0.000000     0.000000     0.000000
   26    -1.000000   120.000000    -0.577350     0.577350    -0.577350     0.000000     0.000000     0.000000
   27     1.000000   120.000000    -0.577350     0.577350     0.577350     0.000000     0.000000     0.000000
   28    -1.000000   120.000000    -0.577350     0.577350     0.577350     0.000000     0.000000     0.000000
   29     1.000000   179.999999     0.000000     0.000000     1.000000     0.000000     0.000000     0.000000
   30    -1.000000   179.999999     0.000000     0.000000     1.000000     0.000000     0.000000     0.000000
   31     1.000000    90.000000     0.000000     1.000000     0.000000     0.000000     0.000000     0.000000
   32    -1.000000    90.000000     0.000000     1.000000     0.000000     0.000000     0.000000     0.000000
   33     1.000000   180.000000     0.000000     0.707107     0.707107     0.000000     0.000000     0.000000
   34    -1.000000   180.000000     0.000000     0.707107     0.707107     0.000000     0.000000     0.000000
   35     1.000000    90.000000     0.000000     0.000000    -1.000000     0.000000     0.000000     0.000000
   36    -1.000000    90.000000     0.000000     0.000000    -1.000000     0.000000     0.000000     0.000000
   37     1.000000   120.000000     0.577350     0.577350    -0.577350     0.000000     0.000000     0.000000
   38    -1.000000   120.000000     0.577350     0.577350    -0.577350     0.000000     0.000000     0.000000
   39     1.000000   180.000000     0.000000     1.000000     0.000000     0.000000     0.000000     0.000000
   40    -1.000000   180.000000     0.000000     1.000000     0.000000     0.000000     0.000000     0.000000
   41     1.000000   120.000000     0.577350    -0.577350    -0.577350     0.000000     0.000000     0.000000
   42    -1.000000   120.000000     0.577350    -0.577350    -0.577350     0.000000     0.000000     0.000000
   43     1.000000   180.000000     0.707107    -0.707107     0.000000     0.000000     0.000000     0.000000
   44    -1.000000   180.000000     0.707107    -0.707107     0.000000     0.000000     0.000000     0.000000
   45     1.000000   180.000000     0.000000    -0.707107     0.707107     0.000000     0.000000     0.000000
   46    -1.000000   180.000000     0.000000    -0.707107     0.707107     0.000000     0.000000     0.000000
   47     1.000000   180.000000     0.707107     0.000000    -0.707107     0.000000     0.000000     0.000000
   48    -1.000000   180.000000     0.707107     0.000000    -0.707107     0.000000     0.000000     0.000000

 I would recommend the setting:
   dimension x,y,z NGX =    19 NGY =   19 NGZ =   19
 SYSTEM =  unknown system
 POSCAR =  MP POSCAR:

 Startparameter for this run:
   NWRITE =      2    write-flag & timer
   PREC   = accura    normal or accurate (medium, high low for compatibility)
   ISTART =      1    job   : 0-new  1-cont  2-samecut
   ICHARG =     11    charge: 1-file 2-atom 10-const
   ISPIN  =      1    spin polarized calculation?
   LNONCOLLINEAR =      F non collinear calculations
   LSORBIT =      F    spin-orbit coupling
   INIWAV =      1    electr: 0-lowe 1-rand  2-diag
   LASPH  =      F    aspherical Exc in radial PAW
   METAGGA=      F    non-selfconsistent MetaGGA calc.

 Electronic Relaxation 1
   ENCUT  =  500.0 eV  36.75 Ry    6.06 a.u.   4.67  4.67  4.67*2*pi/ulx,y,z
   ENINI  =  500.0     initial cutoff
   ENAUG  =  516.5 eV  augmentation charge cutoff
   NELM   =     60;   NELMIN=  2; NELMDL=  0     # of ELM steps
   EDIFF  = 0.1E-05   stopping-criterion for ELM
   LREAL  =      T    real-space projection
   NLSPLINE    = F    spline interpolate recip. space projectors
   LCOMPAT=      F    compatible to vasp.4.4
   GGA_COMPAT  = T    GGA compatible to vasp.4.4-vasp.4.6
   LMAXPAW     = -100 max onsite density
   LMAXMIX     =    4 max onsite mixed and CHGCAR
   VOSKOWN=      0    Vosko Wilk Nusair interpolation
   ROPT   =   -0.00025
 Ionic relaxation
   EDIFFG = 0.1E-04   stopping-criterion for IOM
   NSW    =      0    number of steps for IOM
   NBLOCK =      1;   KBLOCK =      1    inner block; outer block
   IBRION =     -1    ionic relax: 0-MD 1-quasi-New 2-CG
   NFREE  =      1    steps in history (QN), initial steepest desc. (CG)
   ISIF   =      3    stress and relaxation
   IWAVPR =     10    prediction:  0-non 1-charg 2-wave 3-comb
   ISYM   =      1    0-nonsym 1-usesym 2-fastsym
   LCORR  =      T    Harris-Foulkes like correction to forces

   POTIM  = 0.5000    time-step for ionic-motion
   TEIN   =    0.0    initial temperature
   TEBEG  =    0.0;   TEEND  =   0.0 temperature during run
   SMASS  =  -3.00    Nose mass-parameter (am)
   estimated Nose-frequenzy (Omega)   =  0.10E-29 period in steps =****** mass=  -0.150E-27a.u.
   SCALEE = 1.0000    scale energy and forces
   NPACO  =    256;   APACO  = 16.0  distance and # of slots for P.C.
   PSTRESS=    0.0 pullay stress

  Mass of Ions in am
   POMASS =  63.55
[...]
 k-point 59 :   0.1154 0.6154 0.5000  plane waves:     300
 k-point 60 :   0.1218 0.6218 0.5000  plane waves:     300
[...]
 k-point 85 :   0.2628 0.7500 0.4872  plane waves:     305
 k-point 86 :   0.2660 0.7500 0.4840  plane waves:     302
 k-point 87 :   0.2692 0.7500 0.4808  plane waves:     302
 k-point 88 :   0.2724 0.7500 0.4776  plane waves:     302
 k-point 89 :   0.2756 0.7500 0.4744  plane waves:     294
 k-point 90 :   0.2788 0.7500 0.4712  plane waves:     294
 k-point 91 :   0.2821 0.7500 0.4679  plane waves:     294
 k-point 92 :   0.2853 0.7500 0.4647  plane waves:     294
 k-point 93 :   0.2885 0.7500 0.4615  plane waves:     294
 k-point 94 :   0.2917 0.7500 0.4583  plane waves:     294
 k-point 95 :   0.2949 0.7500 0.4551  plane waves:     294
 k-point 96 :   0.2981 0.7500 0.4519  plane waves:     294
 k-point 97 :   0.3013 0.7500 0.4487  plane waves:     296
 k-point 98 :   0.3045 0.7500 0.4455  plane waves:     294
 k-point 99 :   0.3077 0.7500 0.4423  plane waves:     294
 k-point ** :   0.3109 0.7500 0.4391  plane waves:     294
 k-point ** :   0.3141 0.7500 0.4359  plane waves:     294
 k-point ** :   0.3173 0.7500 0.4327  plane waves:     296
 k-point ** :   0.3205 0.7500 0.4295  plane waves:     296
 k-point ** :   0.3237 0.7500 0.4263  plane waves:     296
 k-point ** :   0.3269 0.7500 0.4231  plane waves:     296
 k-point ** :   0.3301 0.7500 0.4199  plane waves:     296
 k-point ** :   0.3333 0.7500 0.4167  plane waves:     296
 k-point ** :   0.3365 0.7500 0.4135  plane waves:     296
 k-point ** :   0.3397 0.7500 0.4103  plane waves:     296
 k-point ** :   0.3429 0.7500 0.4071  plane waves:     296
 k-point ** :   0.3462 0.7500 0.4038  plane waves:     296
 k-point ** :   0.3494 0.7500 0.4006  plane waves:     298
 k-point ** :   0.3526 0.7500 0.3974  plane waves:     298
 k-point ** :   0.3558 0.7500 0.3942  plane waves:     294
 k-point ** :   0.3590 0.7500 0.3910  plane waves:     294
 k-point ** :   0.3622 0.7500 0.3878  plane waves:     296
 k-point ** :   0.3654 0.7500 0.3846  plane waves:     296
 k-point ** :   0.3686 0.7500 0.3814  plane waves:     296
 k-point ** :   0.3718 0.7500 0.3782  plane waves:     296
 k-point ** :   0.3750 0.7500 0.3750  plane waves:     296
 k-point ** :   0.3750 0.7500 0.3750  plane waves:     296
 k-point ** :   0.3654 0.7308 0.3654  plane waves:     296
 k-point ** :   0.3558 0.7115 0.3558  plane waves:     296
 k-point ** :   0.3462 0.6923 0.3462  plane waves:     288
 k-point ** :   0.3365 0.6731 0.3365  plane waves:     288
 k-point ** :   0.3269 0.6538 0.3269  plane waves:     289
 k-point ** :   0.3173 0.6346 0.3173  plane waves:     293
 k-point ** :   0.3077 0.6154 0.3077  plane waves:     293
 k-point ** :   0.2981 0.5962 0.2981  plane waves:     293
 k-point ** :   0.2885 0.5769 0.2885  plane waves:     299
 k-point ** :   0.2788 0.5577 0.2788  plane waves:     299
 k-point ** :   0.2692 0.5385 0.2692  plane waves:     303
 k-point ** :   0.2596 0.5192 0.2596  plane waves:     303
 k-point ** :   0.2500 0.5000 0.2500  plane waves:     307
 k-point ** :   0.2404 0.4808 0.2404  plane waves:     303
 k-point ** :   0.2308 0.4615 0.2308  plane waves:     303
 k-point ** :   0.2212 0.4423 0.2212  plane waves:     305
 k-point ** :   0.2115 0.4231 0.2115  plane waves:     303
 k-point ** :   0.2019 0.4038 0.2019  plane waves:     305
 k-point ** :   0.1923 0.3846 0.1923  plane waves:     303
 k-point ** :   0.1827 0.3654 0.1827  plane waves:     303
 k-point ** :   0.1731 0.3462 0.1731  plane waves:     303
 k-point ** :   0.1635 0.3269 0.1635  plane waves:     303
 k-point ** :   0.1538 0.3077 0.1538  plane waves:     303
 k-point ** :   0.1442 0.2885 0.1442  plane waves:     303
 k-point ** :   0.1346 0.2692 0.1346  plane waves:     305
 k-point ** :   0.1250 0.2500 0.1250  plane waves:     305
 k-point ** :   0.1154 0.2308 0.1154  plane waves:     305
 k-point ** :   0.1058 0.2115 0.1058  plane waves:     307
 k-point ** :   0.0962 0.1923 0.0962  plane waves:     307
 k-point ** :   0.0865 0.1731 0.0865  plane waves:     307
 k-point ** :   0.0769 0.1538 0.0769  plane waves:     307
 k-point ** :   0.0673 0.1346 0.0673  plane waves:     311
 k-point ** :   0.0577 0.1154 0.0577  plane waves:     311
 k-point ** :   0.0481 0.0962 0.0481  plane waves:     311
 k-point ** :   0.0385 0.0769 0.0385  plane waves:     311
 k-point ** :   0.0288 0.0577 0.0288  plane waves:     311
 k-point ** :   0.0192 0.0385 0.0192  plane waves:     307
 k-point ** :   0.0096 0.0192 0.0096  plane waves:     307
[...]
 k-point ** :   0.4103 0.5897 0.5000  plane waves:     300
 k-point ** :   0.4167 0.5833 0.5000  plane waves:     300
 k-point ** :   0.4231 0.5769 0.5000  plane waves:     300
 k-point ** :   0.4295 0.5705 0.5000  plane waves:     298
 k-point ** :   0.4359 0.5641 0.5000  plane waves:     298
 k-point ** :   0.4423 0.5577 0.5000  plane waves:     298
 k-point ** :   0.4487 0.5513 0.5000  plane waves:     300
 k-point ** :   0.4551 0.5449 0.5000  plane waves:     298
 k-point ** :   0.4615 0.5385 0.5000  plane waves:     298
 k-point ** :   0.4679 0.5321 0.5000  plane waves:     300
 k-point ** :   0.4744 0.5256 0.5000  plane waves:     302
 k-point ** :   0.4808 0.5192 0.5000  plane waves:     302
 k-point ** :   0.4872 0.5128 0.5000  plane waves:     302
 k-point ** :   0.4936 0.5064 0.5000  plane waves:     302
 k-point ** :   0.5000 0.5000 0.5000  plane waves:     302

 maximum and minimum number of plane-waves per node :       313      288

 maximum number of plane-waves:       313
 maximum index in each direction:
   IXMAX=    4   IYMAX=    4   IZMAX=    4
   IXMIN=   -5   IYMIN=   -5   IZMIN=   -5

 NGX is ok and might be reduce to  20
 NGY is ok and might be reduce to  20
 NGZ is ok and might be reduce to  20

 serial   3D FFT for wavefunctions
 parallel 3D FFT for charge:
    minimum data exchange during FFTs selected (reduces bandwidth)

 initial charge density was supplied:
 number of electron      11.0000012 magnetization
 keeping initial charge density in first step

 Maximum index for non-local projection operator         9597
 Maximum index for augmentation-charges          889 (set IRDMAX)

 First call to EWALD:  gamma=   0.777
 Maximum number of real-space cells 3x 3x 3
 Maximum number of reciprocal cells 3x 3x 3

 FEWALD executed in parallel

----------------------------------------- Iteration    1(   1)  ---------------------------------------

 eigenvalue-minimisations  : 56260
 total energy-change (2. order) : 0.5193216E+00  (-0.4847394E+02)
 number of electron      11.0000012 magnetization
 augmentation part       11.0000012 magnetization

 Free energy of the ion-electron system (eV)
  alpha Z        PSCENC =       107.61766398
  Ewald energy   TEWEN  =     -1103.00574823
  -1/2 Hartree   DENC   =      -305.11385230
  -exchange  EXHF       =         0.00000000
  -V(xc)+E(xc)   XCENC  =        42.79883773
  PAW double counting   =      1097.44200250    -1242.19543953
  entropy T*S    EENTRO =        -0.00004915
  eigenvalues    EBANDS =        11.99907643
  atomic energy  EATOM  =      1390.97683016
  free energy    TOTEN  =         0.51932160 eV

  energy without entropy =        0.51937074  energy(sigma->0) =        0.51933798

[...]

 eigenvalue-minimisations  : 63560
 total energy-change (2. order) :-0.3697227E+01  (-0.3566659E+01)
 number of electron      11.0000012 magnetization
 augmentation part       11.0000012 magnetization

[...]

----------------------------------------- Iteration    1(   4)  ---------------------------------------

 eigenvalue-minimisations  : 61300
 total energy-change (2. order) :-0.6197249E-06  (-0.6190324E-06)
 number of electron      11.0000012 magnetization
 augmentation part       11.0000012 magnetization

 Free energy of the ion-electron system (eV)
  alpha Z        PSCENC =       107.61766398
  Ewald energy   TEWEN  =     -1103.00574823
  -1/2 Hartree   DENC   =      -305.11385230
  -exchange  EXHF       =         0.00000000
  -V(xc)+E(xc)   XCENC  =        42.79883773
  PAW double counting   =      1097.44200250    -1242.19543953
  entropy T*S    EENTRO =        -0.00005990
  eigenvalues    EBANDS =         8.27528851
  atomic energy  EATOM  =      1390.97683016
  free energy    TOTEN  =        -3.20447708 eV

  energy without entropy =       -3.20441718  energy(sigma->0) =       -3.20445711

 average (electrostatic) potential at core
  the test charge radii are     1.0053
  (the norm of the test charge is              1.0000)
       1 -39.9675

 E-fermi :   5.5506     XC(G=0): -12.7710     alpha+bet : -9.5808

 k-point   1 :       0.0000    0.0000    0.0000
  band No.  band energies     occupation
      1      -5.5625      2.00000
      2       0.7146      2.00000
      3       0.7146      2.00000
      4       0.7146      2.00000
      5       1.5186      2.00000
      6       1.5186      2.00000
      7      26.8047      0.00000
      8      29.1288      0.00000
      9      29.1288      0.00000
     10      29.1288      0.00000
     11      31.6858      0.00000
     12      31.6858      0.00000
     13      31.6858      0.00000
     14      35.1841      0.00000
     15      40.3163      0.00000
     16      40.3163      0.00000
     17      40.3163      0.00000
     18      43.0925      0.00000
     19      43.0925      0.00000
     20      55.8059      0.00000
     21      78.8419      0.00000
     22      78.8419      0.00000
     23      78.8420      0.00000
     24      85.2247      0.00000
     25      85.2247      0.00000
     26      87.8708      0.00000
     27      87.8708      0.00000
     28      87.8708      0.00000
     29      89.8502      0.00000
     30      89.8502      0.00000
     31      89.8502      0.00000
     32      90.9963      0.00000
     33     111.2542      0.00000
     34     111.3467      0.00000
     35     111.3467      0.00000
     36     111.3467      0.00000
     37     112.9748      0.00000
     38     113.9917      0.00000
     39     113.9917      0.00000
     40     113.9917      0.00000
     41     114.3024      0.00000
     42     114.3024      0.00000
     43     114.3025      0.00000
     44     116.7067      0.00000
     45     116.7067      0.00000
     46     116.7067      0.00000
     47     116.8839      0.00000
     48     116.8839      0.00000
     49     116.8839      0.00000
     50     117.7064      0.00000
     51     117.7064      0.00000
     52     124.8776      0.00000
     53     124.8776      0.00000
     54     124.8776      0.00000
     55     126.6338      0.00000
     56     127.1998      0.00000
     57     127.2559      0.00000
     58     127.2559      0.00000
     59     127.2559      0.00000
     60     143.3268      0.00000
[...]
     66     170.5975      0.00000
     67     170.5975      0.00000
     68     171.0530      0.00000
     69     184.2703      0.00000
     70     184.2703      0.00000
     71     199.2357      0.00000
     72     199.2363      0.00000
     73     199.2379      0.00000
     74     200.0880      0.00000
     75     200.0936      0.00000
     76     200.0948      0.00000
     77     202.9386      0.00000
     78     205.8285      0.00000
     79     205.8813      0.00000
     80     206.0699      0.00000

[...]

 k-point 320 :       0.5000    0.5000    0.5000
  band No.  band energies     occupation
      1      -1.3143      2.00000
      2       0.6757      2.00000
      3       0.6757      2.00000
      4       2.0884      2.00000
      5       2.0884      2.00000
      6       2.7656      2.00000
      7       7.4728     -0.00000
      8      25.1725      0.00000
      9      25.8883      0.00000
     10      25.8883      0.00000
     11      28.9570      0.00000
     12      28.9570      0.00000
     13      34.1801      0.00000
     14      47.7079      0.00000
     15      47.7079      0.00000
     16      49.5598      0.00000
     17      51.4982      0.00000
     18      51.4982      0.00000
     19      56.3508      0.00000
     20      67.5959      0.00000
     21      67.5959      0.00000
     22      69.3365      0.00000
     23      70.9031      0.00000
     24      73.8256      0.00000
     25      73.8256      0.00000
     26      75.6463      0.00000
     27      84.4918      0.00000
     28      84.5188      0.00000
     29      90.9736      0.00000
     30      90.9736      0.00000
     31      91.4152      0.00000
     32      92.5775      0.00000
     33      95.4392      0.00000
     34      95.4392      0.00000
     35      96.9354      0.00000
     36      96.9354      0.00000
     37      97.9700      0.00000
     38      98.1390      0.00000
     39      98.1390      0.00000
     40     109.4824      0.00000
     41     113.5223      0.00000
     42     113.5223      0.00000
     43     115.7201      0.00000
     44     122.0896      0.00000
     45     122.0896      0.00000
     46     132.4146      0.00000
     47     132.4146      0.00000
     48     132.7641      0.00000
     49     133.7092      0.00000
     50     133.7875      0.00000
     51     134.1729      0.00000
     52     134.1729      0.00000
     53     139.7225      0.00000
     54     139.7225      0.00000
     55     146.3699      0.00000
     56     146.3699      0.00000
     57     151.4120      0.00000
     58     152.3472      0.00000
     59     152.4876      0.00000
     60     152.4876      0.00000
[...]
     66     160.6449      0.00000
     67     160.8516      0.00000
     68     160.8516      0.00000
     69     161.1231      0.00000
     70     161.1231      0.00000
     71     163.5205      0.00000
     72     171.4495      0.00000
     73     171.4495      0.00000
     74     177.6181      0.00000
     75     177.6181      0.00000
     76     177.8645      0.00000
     77     179.9055      0.00000
     78     179.9055      0.00000
     79     190.3129      0.00000
     80     197.0505      0.00000

 soft charge-density along one line, spin component           1
         0         1         2         3         4         5         6         7         8         9
 total charge-density along one line

------------------------ aborting loop because EDIFF is reached ----------------------------------------

 total charge

# of ion     s       p       d       tot
  1        0.363   0.424   9.246  10.032

  FORCE on cell =-STRESS in cart. coord.  units (eV):
  Direction    XX          YY          ZZ          XY          YZ          ZX
  Alpha Z   107.61766   107.61766   107.61766
  Ewald    -367.66859  -367.66859  -367.66859    -0.00000    -0.00000     0.00000
  Hartree   102.91535   102.91535   102.91535     0.00000     0.00000     0.00000
  E(xc)     -62.62690   -62.62690   -62.62690     0.00000     0.00000     0.00000
  Local     123.38901   123.38901   123.38901     0.00005     0.00005     0.00005
  n-local   -34.58663   -36.10109   -36.14755    -0.61143    -0.24664    -0.54538
  augment    57.06382    57.06382    57.06382    -0.00004    -0.00004    -0.00004
  Kinetic    77.18919    78.14365    82.36610     2.20101     2.14389     2.73002
  Fock        0.00000     0.00000     0.00000     0.00000     0.00000     0.00000
  Total       4.31158     4.31158     4.31158     0.00000     0.00000     0.00000
  in kB     581.87145   581.87145   581.87145     0.00000     0.00000     0.00000

 VOLUME and BASIS-vectors are now :
  energy-cutoff  :      500.00
  volume of cell :       11.87
      direct lattice vectors                 reciprocal lattice vectors
    -1.810631000 -1.810631000  0.000000000    -0.276146824 -0.276146824  0.276146824
    -1.810631000  0.000000000 -1.810631000    -0.276146824  0.276146824 -0.276146824
     0.000000000 -1.810631000 -1.810631000     0.276146824 -0.276146824 -0.276146824

  length of vectors
     2.560618917  2.560618917  2.560618917     0.478300329  0.478300329  0.478300329

 FORCES acting on ions
    electron-ion (+dipol)            ewald-force                    non-local-force                 convergence-correction
   0.126E-15 0.845E-15 0.610E-15   0.567E-14 0.198E-14 0.758E-15   -.194E-25 -.258E-25 -.258E-25   -.173E-12 0.977E-13 0.430E-13
   0.126E-15 0.845E-15 0.610E-15   0.567E-14 0.198E-14 0.758E-15   -.194E-25 -.258E-25 -.258E-25   -.173E-12 0.977E-13 0.430E-13

 POSITION                                       TOTAL-FORCE (eV/Angst)
      0.00000      0.00000      0.00000        -0.000000      0.000000      0.000000
    total drift:                               -0.000000      0.000000      0.000000

  FREE ENERGIE OF THE ION-ELECTRON SYSTEM (eV)
  free  energy   TOTEN  =        -3.20447708 eV

  energy  without entropy=       -3.20441718  energy(sigma->0) =       -3.20445711

 total charge

# of ion     s       p       d       tot
  1        0.363   0.424   9.246  10.032