 vasp.5.3.3 18Dez12 (build Dec 13 2014 13:36:02) complex

 executed on             LinuxIFC date 2018.11.28  11:32:57

 INCAR:
 POTCAR:   PAW_PBE Cu 05Jan2001

 POTCAR:   PAW_PBE Cu 05Jan2001
   VRHFIN =Cu: d10 p1

   TITEL  = PAW_PBE Cu 05Jan2001
   POMASS =   63.546; ZVAL   =   11.000    mass and valenz
   ENMAX  =  273.214; ENMIN  =  204.910 eV
   QCUT   =   -4.481; QGAM   =    8.962    optimization parameters

   Description
     l     E      TYP  RCUT    TYP  RCUT
     2   .000     23  2.300
     2   .000     23  2.300
     0   .000     23  2.300
     0   .000     23  2.300
     1  -.200     23  2.300
     1   .000     23  2.300
     3   .000      7   .000

 PAW_PBE Cu 05Jan2001                   :

 POSCAR: MP POSCAR:
  positions in direct lattice
 exchange correlation table for  LEXCH =        8
   RHO(1)=    0.500       N(1)  =     2000
   RHO(2)=  100.500       N(2)  =     4000

 ion  position               nearest neighbor table
   1  0.000  0.000  0.000-

  LATTYP: Found a face centered cubic cell.
 ALAT       =     3.6212620000

  Lattice vectors:

 A1 = (  -1.8106310000,  -1.8106310000,   0.0000000000)
 A2 = (  -1.8106310000,   0.0000000000,  -1.8106310000)
 A3 = (   0.0000000000,  -1.8106310000,  -1.8106310000)

Analysis of symmetry for initial positions (statically):
 Subroutine PRICEL returns:
 Original cell was already a primitive cell.

 Routine SETGRP: Setting up the symmetry group for a
 face centered cubic supercell.

 Subroutine GETGRP returns: Found 48 space group operations
 (whereof 48 operations were pure point group operations)
 out of a pool of 48 trial point group operations.

The static configuration has the point symmetry O_h .

Analysis of symmetry for dynamics (positions and initial velocities):
 Subroutine PRICEL returns:
 Original cell was already a primitive cell.

 Routine SETGRP: Setting up the symmetry group for a
 face centered cubic supercell.

 Subroutine GETGRP returns: Found 48 space group operations
 (whereof 48 operations were pure point group operations)
 out of a pool of 48 trial point group operations.

The dynamic configuration has the point symmetry O_h .

 irot  :   1
 isymop:   1   0   0
           0   1   0
           0   0   1

 gtrans:     0.0000000     0.0000000     0.0000000

 ptrans:     0.0000000     0.0000000     0.0000000
 rotmap:
 (   1->   1)

[...]

 irot  :  48
 isymop:   0   0   1
           0   1   0
           1   0   0

 gtrans:     0.0000000     0.0000000     0.0000000

 ptrans:     0.0000000     0.0000000     0.0000000
 rotmap:
 (   1->   1)

 KPOINTS: k-points

Automatic generation of k-mesh.
Space group operators:
 irot       det(A)        alpha          n_x          n_y          n_z        tau_x        tau_y        tau_z
    1     1.000000     0.000000     1.000000     0.000000     0.000000     0.000000     0.000000     0.000000
    2    -1.000000     0.000000     1.000000     0.000000     0.000000     0.000000     0.000000     0.000000
    3     1.000000   120.000000     0.577350     0.577350     0.577350     0.000000     0.000000     0.000000
    4    -1.000000   120.000000     0.577350     0.577350     0.577350     0.000000     0.000000     0.000000
    5     1.000000   120.000000    -0.577350    -0.577350    -0.577350     0.000000     0.000000     0.000000
    6    -1.000000   120.000000    -0.577350    -0.577350    -0.577350     0.000000     0.000000     0.000000
    7     1.000000    90.000000     1.000000     0.000000     0.000000     0.000000     0.000000     0.000000
    8    -1.000000    90.000000     1.000000     0.000000     0.000000     0.000000     0.000000     0.000000
    9     1.000000   180.000000     0.707107     0.707107     0.000000     0.000000     0.000000     0.000000
   10    -1.000000   180.000000     0.707107     0.707107     0.000000     0.000000     0.000000     0.000000
   11     1.000000    90.000000     0.000000    -1.000000     0.000000     0.000000     0.000000     0.000000
   12    -1.000000    90.000000     0.000000    -1.000000     0.000000     0.000000     0.000000     0.000000
   13     1.000000   180.000000     1.000000     0.000000     0.000000     0.000000     0.000000     0.000000
   14    -1.000000   180.000000     1.000000     0.000000     0.000000     0.000000     0.000000     0.000000
   15     1.000000   120.000000    -0.577350    -0.577350     0.577350     0.000000     0.000000     0.000000
   16    -1.000000   120.000000    -0.577350    -0.577350     0.577350     0.000000     0.000000     0.000000
   17     1.000000   120.000000     0.577350    -0.577350     0.577350     0.000000     0.000000     0.000000
   18    -1.000000   120.000000     0.577350    -0.577350     0.577350     0.000000     0.000000     0.000000
   19     1.000000    90.000000    -1.000000     0.000000     0.000000     0.000000     0.000000     0.000000
   20    -1.000000    90.000000    -1.000000     0.000000     0.000000     0.000000     0.000000     0.000000
   21     1.000000    90.000000     0.000000     0.000000     1.000000     0.000000     0.000000     0.000000
   22    -1.000000    90.000000     0.000000     0.000000     1.000000     0.000000     0.000000     0.000000
   23     1.000000   180.000000     0.707107     0.000000     0.707107     0.000000     0.000000     0.000000
   24    -1.000000   180.000000     0.707107     0.000000     0.707107     0.000000     0.000000     0.000000
   25     1.000000   120.000000    -0.577350     0.577350    -0.577350     0.000000     0.000000     0.000000
   26    -1.000000   120.000000    -0.577350     0.577350    -0.577350     0.000000     0.000000     0.000000
   27     1.000000   120.000000    -0.577350     0.577350     0.577350     0.000000     0.000000     0.000000
   28    -1.000000   120.000000    -0.577350     0.577350     0.577350     0.000000     0.000000     0.000000
   29     1.000000   179.999999     0.000000     0.000000     1.000000     0.000000     0.000000     0.000000
   30    -1.000000   179.999999     0.000000     0.000000     1.000000     0.000000     0.000000     0.000000
   31     1.000000    90.000000     0.000000     1.000000     0.000000     0.000000     0.000000     0.000000
   32    -1.000000    90.000000     0.000000     1.000000     0.000000     0.000000     0.000000     0.000000
   33     1.000000   180.000000     0.000000     0.707107     0.707107     0.000000     0.000000     0.000000
   34    -1.000000   180.000000     0.000000     0.707107     0.707107     0.000000     0.000000     0.000000
   35     1.000000    90.000000     0.000000     0.000000    -1.000000     0.000000     0.000000     0.000000
   36    -1.000000    90.000000     0.000000     0.000000    -1.000000     0.000000     0.000000     0.000000
   37     1.000000   120.000000     0.577350     0.577350    -0.577350     0.000000     0.000000     0.000000
   38    -1.000000   120.000000     0.577350     0.577350    -0.577350     0.000000     0.000000     0.000000
   39     1.000000   180.000000     0.000000     1.000000     0.000000     0.000000     0.000000     0.000000
   40    -1.000000   180.000000     0.000000     1.000000     0.000000     0.000000     0.000000     0.000000
   41     1.000000   120.000000     0.577350    -0.577350    -0.577350     0.000000     0.000000     0.000000
   42    -1.000000   120.000000     0.577350    -0.577350    -0.577350     0.000000     0.000000     0.000000
   43     1.000000   180.000000     0.707107    -0.707107     0.000000     0.000000     0.000000     0.000000
   44    -1.000000   180.000000     0.707107    -0.707107     0.000000     0.000000     0.000000     0.000000
   45     1.000000   180.000000     0.000000    -0.707107     0.707107     0.000000     0.000000     0.000000
   46    -1.000000   180.000000     0.000000    -0.707107     0.707107     0.000000     0.000000     0.000000
   47     1.000000   180.000000     0.707107     0.000000    -0.707107     0.000000     0.000000     0.000000
   48    -1.000000   180.000000     0.707107     0.000000    -0.707107     0.000000     0.000000     0.000000

 Subroutine IBZKPT returns following result:

 Found     56 irreducible k-points:

 Following reciprocal coordinates:
            Coordinates               Weight
  0.000000  0.000000  0.000000      1.000000
  0.090909  0.000000  0.000000      8.000000
  0.181818  0.000000  0.000000      8.000000
  0.272727  0.000000  0.000000      8.000000
  0.363636  0.000000  0.000000      8.000000
  0.454545  0.000000  0.000000      8.000000
  0.090909  0.090909  0.000000      6.000000
  0.181818  0.090909  0.000000     24.000000
  0.272727  0.090909  0.000000     24.000000
  0.363636  0.090909  0.000000     24.000000
  0.454545  0.090909  0.000000     24.000000
 -0.454545  0.090909  0.000000     24.000000
 -0.363636  0.090909  0.000000     24.000000
 -0.272727  0.090909  0.000000     24.000000
 -0.181818  0.090909  0.000000     24.000000
 -0.090909  0.090909  0.000000     12.000000
  0.181818  0.181818  0.000000      6.000000
  0.272727  0.181818  0.000000     24.000000
  0.363636  0.181818  0.000000     24.000000
  0.454545  0.181818  0.000000     24.000000
 -0.454545  0.181818  0.000000     24.000000
 -0.363636  0.181818  0.000000     24.000000
 -0.272727  0.181818  0.000000     24.000000
 -0.181818  0.181818  0.000000     12.000000
  0.272727  0.272727  0.000000      6.000000
  0.363636  0.272727  0.000000     24.000000
  0.454545  0.272727  0.000000     24.000000
 -0.454545  0.272727  0.000000     24.000000
 -0.363636  0.272727  0.000000     24.000000
 -0.272727  0.272727  0.000000     12.000000
  0.363636  0.363636  0.000000      6.000000
  0.454545  0.363636  0.000000     24.000000
 -0.454545  0.363636  0.000000     24.000000
 -0.363636  0.363636  0.000000     12.000000
  0.454545  0.454545  0.000000      6.000000
 -0.454545  0.454545  0.000000     12.000000
  0.272727  0.181818  0.090909     24.000000
  0.363636  0.181818  0.090909     48.000000
  0.454545  0.181818  0.090909     48.000000
 -0.454545  0.181818  0.090909     48.000000
  0.363636  0.272727  0.090909     24.000000
  0.454545  0.272727  0.090909     48.000000
 -0.454545  0.272727  0.090909     48.000000
 -0.363636  0.272727  0.090909     48.000000
 -0.272727  0.272727  0.090909     48.000000
 -0.181818  0.272727  0.090909     24.000000
  0.454545  0.363636  0.090909     24.000000
 -0.454545  0.363636  0.090909     48.000000
 -0.363636  0.363636  0.090909     48.000000
 -0.272727  0.363636  0.090909     24.000000
 -0.454545  0.454545  0.090909     24.000000
 -0.363636  0.454545  0.090909     24.000000
 -0.454545  0.363636  0.181818     24.000000
 -0.363636  0.363636  0.181818     48.000000
 -0.363636  0.454545  0.181818     24.000000
 -0.272727  0.454545  0.181818     24.000000

 Following cartesian coordinates:
            Coordinates               Weight
 -0.000000 -0.000000 -0.000000      1.000000
 -0.025104 -0.025104  0.025104      8.000000
 -0.050209 -0.050209  0.050209      8.000000
 -0.075313 -0.075313  0.075313      8.000000
 -0.100417 -0.100417  0.100417      8.000000
 -0.125521 -0.125521  0.125521      8.000000
 -0.050209 -0.000000 -0.000000      6.000000
 -0.075313 -0.025104  0.025104     24.000000
 -0.100417 -0.050209  0.050209     24.000000
[...]
  -0.10041703 -0.00000000 -0.00000000       0.005
  -0.12552128 -0.02510426  0.02510426       0.018
  -0.15062554 -0.05020851  0.05020851       0.018
  -0.17572980 -0.07531277  0.07531277       0.018
   0.07531277  0.17572980 -0.17572980       0.018
   0.05020851  0.15062554 -0.15062554       0.018
   0.02510426  0.12552128 -0.12552128       0.018
  -0.00000000  0.10041703 -0.10041703       0.009
  -0.15062554 -0.00000000 -0.00000000       0.005
  -0.17572980 -0.02510426  0.02510426       0.018
  -0.20083405 -0.05020851  0.05020851       0.018
   0.05020851  0.20083405 -0.20083405       0.018
   0.02510426  0.17572980 -0.17572980       0.018
  -0.00000000  0.15062554 -0.15062554       0.009
  -0.20083405 -0.00000000 -0.00000000       0.005
  -0.22593831 -0.02510426  0.02510426       0.018
   0.02510426  0.22593831 -0.22593831       0.018
  -0.00000000  0.20083405 -0.20083405       0.009
  -0.25104257 -0.00000000 -0.00000000       0.005
  -0.00000000  0.25104257 -0.25104257       0.009
  -0.10041703 -0.05020851  0.00000000       0.018
  -0.12552128 -0.07531277  0.02510426       0.036
  -0.15062554 -0.10041703  0.05020851       0.036
   0.10041703  0.15062554 -0.20083405       0.036
  -0.15062554 -0.05020851 -0.00000000       0.018
  -0.17572980 -0.07531277  0.02510426       0.036
   0.07531277  0.17572980 -0.22593831       0.036
   0.05020851  0.15062554 -0.20083405       0.036
   0.02510426  0.12552128 -0.17572980       0.036
  -0.00000000  0.10041703 -0.15062554       0.018
  -0.20083405 -0.05020851 -0.00000000       0.018
   0.05020851  0.20083405 -0.25104257       0.036
   0.02510426  0.17572980 -0.22593831       0.036
  -0.00000000  0.15062554 -0.20083405       0.018
   0.02510426  0.22593831 -0.27614682       0.018
  -0.00000000  0.20083405 -0.25104257       0.018
   0.07531277  0.17572980 -0.27614682       0.018
   0.05020851  0.15062554 -0.25104257       0.036
   0.02510426  0.17572980 -0.27614682       0.018
  -0.00000000  0.15062554 -0.25104257       0.018

 k-points in reciprocal lattice and weights: k-points
   0.00000000  0.00000000  0.00000000       0.001
   0.09090909  0.00000000  0.00000000       0.006
   0.18181818  0.00000000  0.00000000       0.006
   0.27272727  0.00000000  0.00000000       0.006
   0.36363636  0.00000000  0.00000000       0.006
   0.45454545  0.00000000  0.00000000       0.006
   0.09090909  0.09090909  0.00000000       0.005
   0.18181818  0.09090909  0.00000000       0.018
   0.27272727  0.09090909  0.00000000       0.018
   0.36363636  0.09090909  0.00000000       0.018
   0.45454545  0.09090909  0.00000000       0.018
  -0.45454545  0.09090909  0.00000000       0.018
  -0.36363636  0.09090909  0.00000000       0.018
  -0.27272727  0.09090909  0.00000000       0.018
  -0.18181818  0.09090909  0.00000000       0.018
  -0.09090909  0.09090909  0.00000000       0.009
   0.18181818  0.18181818  0.00000000       0.005
   0.27272727  0.18181818  0.00000000       0.018
   0.36363636  0.18181818  0.00000000       0.018
   0.45454545  0.18181818  0.00000000       0.018
  -0.45454545  0.18181818  0.00000000       0.018
  -0.36363636  0.18181818  0.00000000       0.018
  -0.27272727  0.18181818  0.00000000       0.018
  -0.18181818  0.18181818  0.00000000       0.009
   0.27272727  0.27272727  0.00000000       0.005
   0.36363636  0.27272727  0.00000000       0.018
   0.45454545  0.27272727  0.00000000       0.018
  -0.45454545  0.27272727  0.00000000       0.018
  -0.36363636  0.27272727  0.00000000       0.018
  -0.27272727  0.27272727  0.00000000       0.009
   0.36363636  0.36363636  0.00000000       0.005
   0.45454545  0.36363636  0.00000000       0.018
  -0.45454545  0.36363636  0.00000000       0.018
  -0.36363636  0.36363636  0.00000000       0.009
   0.45454545  0.45454545  0.00000000       0.005
  -0.45454545  0.45454545  0.00000000       0.009
   0.27272727  0.18181818  0.09090909       0.018
   0.36363636  0.18181818  0.09090909       0.036
   0.45454545  0.18181818  0.09090909       0.036
  -0.45454545  0.18181818  0.09090909       0.036
   0.36363636  0.27272727  0.09090909       0.018
   0.45454545  0.27272727  0.09090909       0.036
  -0.45454545  0.27272727  0.09090909       0.036
  -0.36363636  0.27272727  0.09090909       0.036
  -0.27272727  0.27272727  0.09090909       0.036
  -0.18181818  0.27272727  0.09090909       0.018
   0.45454545  0.36363636  0.09090909       0.018
  -0.45454545  0.36363636  0.09090909       0.036
  -0.36363636  0.36363636  0.09090909       0.036
  -0.27272727  0.36363636  0.09090909       0.018
  -0.45454545  0.45454545  0.09090909       0.018
  -0.36363636  0.45454545  0.09090909       0.018
  -0.45454545  0.36363636  0.18181818       0.018
  -0.36363636  0.36363636  0.18181818       0.036
  -0.36363636  0.45454545  0.18181818       0.018
  -0.27272727  0.45454545  0.18181818       0.018

 position of ions in fractional coordinates (direct lattice)
   0.00000000  0.00000000  0.00000000

 position of ions in cartesian coordinates  (Angst):
   0.00000000  0.00000000  0.00000000

 k-point  1 :   0.0000 0.0000 0.0000  plane waves:     331
 k-point  2 :   0.0909 0.0000 0.0000  plane waves:     328
 k-point  3 :   0.1818 0.0000 0.0000  plane waves:     320
 k-point  4 :   0.2727 0.0000 0.0000  plane waves:     317
 k-point  5 :   0.3636 0.0000 0.0000  plane waves:     320
 k-point  6 :   0.4545 0.0000 0.0000  plane waves:     326
 k-point  7 :   0.0909 0.0909 0.0000  plane waves:     327
 k-point  8 :   0.1818 0.0909 0.0000  plane waves:     319
 k-point  9 :   0.2727 0.0909 0.0000  plane waves:     317
 k-point 10 :   0.3636 0.0909 0.0000  plane waves:     323
 k-point 11 :   0.4545 0.0909 0.0000  plane waves:     321
 k-point 12 :  -0.4545 0.0909 0.0000  plane waves:     324
 k-point 13 :  -0.3636 0.0909 0.0000  plane waves:     320
 k-point 14 :  -0.2727 0.0909 0.0000  plane waves:     318
 k-point 15 :  -0.1818 0.0909 0.0000  plane waves:     318
 k-point 16 :  -0.0909 0.0909 0.0000  plane waves:     319
 k-point 17 :   0.1818 0.1818 0.0000  plane waves:     319
 k-point 18 :   0.2727 0.1818 0.0000  plane waves:     318
 k-point 19 :   0.3636 0.1818 0.0000  plane waves:     322
 k-point 20 :   0.4545 0.1818 0.0000  plane waves:     321
 k-point 21 :  -0.4545 0.1818 0.0000  plane waves:     319
 k-point 22 :  -0.3636 0.1818 0.0000  plane waves:     320
 k-point 23 :  -0.2727 0.1818 0.0000  plane waves:     317
 k-point 24 :  -0.1818 0.1818 0.0000  plane waves:     319
 k-point 25 :   0.2727 0.2727 0.0000  plane waves:     311
 k-point 26 :   0.3636 0.2727 0.0000  plane waves:     317
 k-point 27 :   0.4545 0.2727 0.0000  plane waves:     322
 k-point 28 :  -0.4545 0.2727 0.0000  plane waves:     318
 k-point 29 :  -0.3636 0.2727 0.0000  plane waves:     319
 k-point 30 :  -0.2727 0.2727 0.0000  plane waves:     323
 k-point 31 :   0.3636 0.3636 0.0000  plane waves:     323
 k-point 32 :   0.4545 0.3636 0.0000  plane waves:     324
 k-point 33 :  -0.4545 0.3636 0.0000  plane waves:     320
 k-point 34 :  -0.3636 0.3636 0.0000  plane waves:     317
 k-point 35 :   0.4545 0.4545 0.0000  plane waves:     322
 k-point 36 :  -0.4545 0.4545 0.0000  plane waves:     318
 k-point 37 :   0.2727 0.1818 0.0909  plane waves:     317
 k-point 38 :   0.3636 0.1818 0.0909  plane waves:     317
 k-point 39 :   0.4545 0.1818 0.0909  plane waves:     319
 k-point 40 :  -0.4545 0.1818 0.0909  plane waves:     321
 k-point 41 :   0.3636 0.2727 0.0909  plane waves:     316
 k-point 42 :   0.4545 0.2727 0.0909  plane waves:     321
 k-point 43 :  -0.4545 0.2727 0.0909  plane waves:     317
 k-point 44 :  -0.3636 0.2727 0.0909  plane waves:     318
 k-point 45 :  -0.2727 0.2727 0.0909  plane waves:     321
 k-point 46 :  -0.1818 0.2727 0.0909  plane waves:     322
 k-point 47 :   0.4545 0.3636 0.0909  plane waves:     323
 k-point 48 :  -0.4545 0.3636 0.0909  plane waves:     323
 k-point 49 :  -0.3636 0.3636 0.0909  plane waves:     319
 k-point 50 :  -0.2727 0.3636 0.0909  plane waves:     319
 k-point 51 :  -0.4545 0.4545 0.0909  plane waves:     322
 k-point 52 :  -0.3636 0.4545 0.0909  plane waves:     320
 k-point 53 :  -0.4545 0.3636 0.1818  plane waves:     321
 k-point 54 :  -0.3636 0.3636 0.1818  plane waves:     321
 k-point 55 :  -0.3636 0.4545 0.1818  plane waves:     322
 k-point 56 :  -0.2727 0.4545 0.1818  plane waves:     319

 maximum and minimum number of plane-waves per node :       331      311

 maximum number of plane-waves:       331
 maximum index in each direction:
   IXMAX=    5   IYMAX=    4   IZMAX=    4
   IXMIN=   -5   IYMIN=   -5   IZMIN=   -4

 WARNING: aliasing errors must be expected set NGX to  22 to avoid them
 NGY is ok and might be reduce to  20
 NGZ is ok and might be reduce to  18
 aliasing errors are usually negligible using standard VASP settings
 and one can safely disregard these warnings

 serial   3D FFT for wavefunctions
 parallel 3D FFT for charge:
    minimum data exchange during FFTs selected (reduces bandwidth)

 Broyden mixing: mesh for mixing (old mesh)
   NGX =  9   NGY =  9   NGZ =  9
  (NGX  = 40   NGY  = 40   NGZ  = 40)
  gives a total of    729 points

 initial charge density was supplied:
 charge density of overlapping atoms calculated
 number of electron      11.0000000 magnetization
 keeping initial charge density in first step

 Maximum index for augmentation-charges          889 (set IRDMAX)

 First call to EWALD:  gamma=   0.777
 Maximum number of real-space cells 3x 3x 3
 Maximum number of reciprocal cells 3x 3x 3

 FEWALD executed in parallel

----------------------------------------- Iteration    1(   1)  ---------------------------------------

 eigenvalue-minimisations  :  2460
 total energy-change (2. order) : 0.1843382E+01  (-0.6371975E+03)
 number of electron      11.0000000 magnetization
 augmentation part       11.0000000 magnetization

 Free energy of the ion-electron system (eV)
  alpha Z        PSCENC =       107.61766398
  Ewald energy   TEWEN  =     -1103.00574823
  -1/2 Hartree   DENC   =      -327.19711362
  -exchange  EXHF       =         0.00000000
  -V(xc)+E(xc)   XCENC  =        43.88787620
  PAW double counting   =      1082.05229236    -1226.07700675
  entropy T*S    EENTRO =         0.00001719
  eigenvalues    EBANDS =        33.58856605
  atomic energy  EATOM  =      1390.97683486
  free energy    TOTEN  =         1.84338204 eV

  energy without entropy =        1.84336484  energy(sigma->0) =        1.84337631

[...]

 eigenvalue-minimisations  :  2780
 total energy-change (2. order) :-0.6431607E+01  (-0.6399997E+01)
 number of electron      11.0000000 magnetization
 augmentation part       11.0000000 magnetization

[...]

 Broyden mixing:
  rms(total) = 0.70008E+00    rms(broyden)= 0.70007E+00
  rms(prec ) = 0.27321E+01
  weight for this iteration     100.00

[...]

 eigenvalues of (default mixing * dielectric matrix)
  average eigenvalue GAMMA=   0.6930
  0.6930

[...]

 eigenvalue-minimisations  :  2920
 total energy-change (2. order) : 0.2265485E-05  (-0.2408435E-06)
 number of electron      11.0000012 magnetization
 augmentation part        7.1898610 magnetization

 Broyden mixing:
  rms(total) = 0.38470E-04    rms(broyden)= 0.38458E-04
  rms(prec ) = 0.12100E-03
  weight for this iteration     100.00

 eigenvalues of (default mixing * dielectric matrix)
  average eigenvalue GAMMA=   1.5597
  2.5543  2.5543  0.6764  0.9616  1.0393  1.5725

[...]

----------------------------------------- Iteration    1(  12)  ---------------------------------------

 eigenvalue-minimisations  :  1160
 total energy-change (2. order) :-0.2871582E-06  (-0.6978322E-09)
 number of electron      11.0000012 magnetization
 augmentation part        7.1898610 magnetization

 Free energy of the ion-electron system (eV)
  alpha Z        PSCENC =       107.61766398
  Ewald energy   TEWEN  =     -1103.00574823
  -1/2 Hartree   DENC   =      -305.11406288
  -exchange  EXHF       =         0.00000000
  -V(xc)+E(xc)   XCENC  =        42.79884829
  PAW double counting   =      1097.43920431    -1242.19296182
  entropy T*S    EENTRO =         0.00001913
  eigenvalues    EBANDS =         7.75668817
  atomic energy  EATOM  =      1390.97683486
  free energy    TOTEN  =        -3.72351420 eV

  energy without entropy =       -3.72353333  energy(sigma->0) =       -3.72352058

 average (electrostatic) potential at core
  the test charge radii are     1.0053
  (the norm of the test charge is              1.0000)
       1 -39.9675

 E-fermi :   3.7012     XC(G=0): -12.7710     alpha+bet : -9.5808

 k-point   1 :       0.0000    0.0000    0.0000
  band No.  band energies     occupation
      1      -5.5622      2.00000
      2       0.7080      2.00000
      3       0.7080      2.00000
      4       0.7080      2.00000
      5       1.5292      2.00000
      6       1.5292      2.00000
      7      26.8047      0.00000
      8      29.1287      0.00000
      9      29.1288      0.00000
     10      29.1288      0.00000
     11      31.6838      0.00000
     12      31.6838      0.00000
     13      31.6838      0.00000
     14      35.1840      0.00000
     15      40.3162      0.00000
     16      40.3162      0.00000
     17      40.3162      0.00000
     18      43.0939      0.00000
     19      43.0939      0.00000
     20      55.8052      0.00000

[...]

 k-point  56 :      -0.2727    0.4545    0.1818
  band No.  band energies     occupation
      1      -0.3681      2.00000
      2       0.0275      2.00000
      3       0.3811      2.00000
      4       1.5027      2.00000
      5       2.1840      2.00000
      6       9.4153      0.00000
      7       9.4534      0.00000
      8      12.0711      0.00000
      9      13.9817      0.00000
     10      29.8093      0.00000
     11      33.8137      0.00000
     12      34.0743      0.00000
     13      38.5474      0.00000
     14      48.4863      0.00000
     15      51.5383      0.00000
     16      53.9210      0.00000
     17      54.2624      0.00000
     18      56.8029      0.00000
     19      58.4567      0.00000
     20      60.1968      0.00000

 soft charge-density along one line, spin component           1
         0         1         2         3         4         5         6         7         8         9
 total charge-density along one line

------------------------ aborting loop because EDIFF is reached ----------------------------------------

  FORCE on cell =-STRESS in cart. coord.  units (eV):
  Direction    XX          YY          ZZ          XY          YZ          ZX
  Alpha Z   107.61766   107.61766   107.61766
  Ewald    -367.66859  -367.66859  -367.66859    -0.00000    -0.00000     0.00000
  Hartree   101.70464   101.70464   101.70464     0.00000     0.00000     0.00000
  E(xc)     -62.66060   -62.66060   -62.66060     0.00000     0.00000     0.00000
  Local     122.42553   122.42553   122.42553     0.00005     0.00005     0.00005
  n-local   -37.05609   -35.89703   -36.55520    -0.88652     1.07185     0.57858
  augment    56.55705    56.55705    56.55705    -0.00004    -0.00004    -0.00004
  Kinetic    81.68354    76.92698    77.32232     3.04605    -2.04601    -2.44687
  Fock        0.00000     0.00000     0.00000     0.00000     0.00000     0.00000
  Total       0.11719     0.11719     0.11719     0.00000    -0.00000     0.00000
  in kB      15.81584    15.81584    15.81584     0.00000    -0.00000     0.00000

 VOLUME and BASIS-vectors are now :
  energy-cutoff  :      520.00
  volume of cell :       11.87
      direct lattice vectors                 reciprocal lattice vectors
    -1.810631000 -1.810631000  0.000000000    -0.276146824 -0.276146824  0.276146824
    -1.810631000  0.000000000 -1.810631000    -0.276146824  0.276146824 -0.276146824
     0.000000000 -1.810631000 -1.810631000     0.276146824 -0.276146824 -0.276146824

  length of vectors
     2.560618917  2.560618917  2.560618917     0.478300329  0.478300329  0.478300329

 FORCES acting on ions
    electron-ion (+dipol)            ewald-force                    non-local-force                 convergence-correction
   0.308E-15 0.687E-15 0.681E-15   0.567E-14 0.198E-14 0.758E-15   -.181E-24 -.207E-24 0.207E-24   -.127E-13 0.275E-13 0.335E-13
   0.308E-15 0.687E-15 0.681E-15   0.567E-14 0.198E-14 0.758E-15   -.181E-24 -.207E-24 0.207E-24   -.127E-13 0.275E-13 0.335E-13

 POSITION                                       TOTAL-FORCE (eV/Angst)
      0.00000      0.00000      0.00000        -0.000000      0.000000      0.000000
    total drift:                               -0.000000      0.000000      0.000000

  FREE ENERGIE OF THE ION-ELECTRON SYSTEM (eV)
  free  energy   TOTEN  =        -3.72351420 eV

  energy  without entropy=       -3.72353333  energy(sigma->0) =       -3.72352058

 writing wavefunctions