 vasp.5.3.3 18Dez12 (build Dec 13 2014 13:36:02) complex

 executed on             LinuxIFC date 2018.11.28  13:03:35

 INCAR:
 POTCAR:   PAW_PBE Zn 06Sep2000
 POTCAR:   PAW_PBE Te 08Apr2002

 POTCAR:   PAW_PBE Zn 06Sep2000
   VRHFIN =Zn: d10 p2

   TITEL  = PAW_PBE Zn 06Sep2000
   POMASS =   65.390; ZVAL   =   12.000    mass and valenz
   ENMAX  =  276.727; ENMIN  =  207.545 eV
   QCUT   =   -4.510; QGAM   =    9.020    optimization parameters

   Description
     l     E      TYP  RCUT    TYP  RCUT
     2   .000     23  2.300
     2   .000     23  2.300
     0   .000     23  2.300
     0   .000     23  2.300
     1  -.200     23  2.300
     1   .000     23  2.300
     3   .000      7   .000

 POTCAR:   PAW_PBE Te 08Apr2002
   VRHFIN =Te: s2p4

   TITEL  = PAW_PBE Te 08Apr2002
   POMASS =  127.600; ZVAL   =    6.000    mass and valenz
   ENMAX  =  174.982; ENMIN  =  131.236 eV
   QCUT   =   -3.586; QGAM   =    7.172    optimization parameters

   Description
     l     E      TYP  RCUT    TYP  RCUT
     0   .000     23  2.300
     0   .000     23  2.300
     1   .000     23  2.300
     1   .000     23  2.300
     2   .000     23  2.300
     3  -.100     23  2.300

 PAW_PBE Zn 06Sep2000                   :
 PAW_PBE Te 08Apr2002                   :

 POSCAR: MP POSCAR:
  positions in direct lattice
 exchange correlation table for  LEXCH =        8
   RHO(1)=    0.500       N(1)  =     2000
   RHO(2)=  100.500       N(2)  =     4000

 ion  position               nearest neighbor table
   1  0.000  0.000  0.000-   2 2.68   2 2.68   2 2.68   2 2.68
   2  0.250  0.250  0.250-   1 2.68   1 2.68   1 2.68   1 2.68

  LATTYP: Found a face centered cubic cell.
 ALAT       =     6.1848268414

  Lattice vectors:

 A1 = (   3.7874170000,   0.0000000000,   2.1866660000)
 A2 = (   1.2624720000,   3.5708110000,   2.1866660000)
 A3 = (   0.0000000000,   0.0000000000,   4.3733330000)

Analysis of symmetry for initial positions (statically):
 Subroutine PRICEL returns:
 Original cell was already a primitive cell.

 Routine SETGRP: Setting up the symmetry group for a
 face centered cubic supercell.

 Subroutine GETGRP returns: Found 24 space group operations
 (whereof 24 operations were pure point group operations)
 out of a pool of 48 trial point group operations.

The static configuration has the point symmetry T_d .

Analysis of symmetry for dynamics (positions and initial velocities):
 Subroutine PRICEL returns:
 Original cell was already a primitive cell.

 Routine SETGRP: Setting up the symmetry group for a
 face centered cubic supercell.

 Subroutine GETGRP returns: Found 24 space group operations
 (whereof 24 operations were pure point group operations)
 out of a pool of 48 trial point group operations.

The dynamic configuration has the point symmetry T_d .

 irot  :   1
 isymop:   1   0   0
           0   1   0
           0   0   1

 gtrans:     0.0000000     0.0000000     0.0000000

 ptrans:     0.0000000     0.0000000     0.0000000
 rotmap:
 (   1->   1)  (   2->   2)

[...]

 irot  :  24
 isymop:   0   0   1
           0   1   0
           1   0   0

 gtrans:     0.0000000     0.0000000     0.0000000

 ptrans:     0.0000000     0.0000000     0.0000000
 rotmap:
 (   1->   1)  (   2->   2)

 KPOINTS: k-points

Automatic generation of k-mesh.
Space group operators:
 irot       det(A)        alpha          n_x          n_y          n_z        tau_x        tau_y        tau_z
    1     1.000000     0.000000     1.000000     0.000000     0.000000     0.000000     0.000000     0.000000
    2     1.000000   120.000000    -0.471405    -0.333333    -0.816497     0.000000     0.000000     0.000000
    3     1.000000   120.000000     0.471404     0.333334     0.816497     0.000000     0.000000     0.000000
    4    -1.000000    90.000000    -0.816497    -0.577350     0.000000     0.000000     0.000000     0.000000
    5    -1.000000   180.000000     0.866025     0.000000     0.500000     0.000000     0.000000     0.000000
    6    -1.000000    90.000000     0.408248    -0.577350     0.707107     0.000000     0.000000     0.000000
    7     1.000000   180.000000     0.816497     0.577350     0.000000     0.000000     0.000000     0.000000
    8     1.000000   120.000000     0.942809    -0.333333     0.000000     0.000000     0.000000     0.000000
    9     1.000000   120.000000     0.000000    -1.000000    -0.000000     0.000000     0.000000     0.000000
   10    -1.000000    90.000000     0.816497     0.577350    -0.000000     0.000000     0.000000     0.000000
   11    -1.000000    90.000000     0.408248    -0.577350    -0.707107     0.000000     0.000000     0.000000
   12    -1.000000   179.999999     0.288675     0.816497     0.500000     0.000000     0.000000     0.000000
   13     1.000000   120.000000     0.000000     1.000000    -0.000000     0.000000     0.000000     0.000000
   14     1.000000   120.000000     0.471405     0.333333    -0.816497     0.000000     0.000000     0.000000
   15     1.000000   180.000000    -0.408248     0.577350     0.707107     0.000000     0.000000     0.000000
   16    -1.000000    90.000000    -0.408248     0.577350    -0.707107     0.000000     0.000000     0.000000
   17    -1.000000   180.000000     0.000000     0.000000     1.000000     0.000000     0.000000     0.000000
   18    -1.000000    90.000000    -0.408248     0.577350     0.707107     0.000000     0.000000     0.000000
   19     1.000000   120.000000    -0.942809     0.333333     0.000000     0.000000     0.000000     0.000000
   20     1.000000   180.000000    -0.408248     0.577350    -0.707107     0.000000     0.000000     0.000000
   21     1.000000   120.000000    -0.471404    -0.333333     0.816497     0.000000     0.000000     0.000000
   22    -1.000000   180.000000     0.288675     0.816497    -0.500000     0.000000     0.000000     0.000000
   23    -1.000000   180.000000     0.577350    -0.816497     0.000000     0.000000     0.000000     0.000000
   24    -1.000000   180.000000     0.866025     0.000000    -0.500000     0.000000     0.000000     0.000000

 Subroutine IBZKPT returns following result:

 Found     56 irreducible k-points:

 Following reciprocal coordinates:
            Coordinates               Weight
  0.000000  0.000000  0.000000      1.000000
  0.090909  0.000000  0.000000      8.000000
  0.181818  0.000000  0.000000      8.000000
  0.272727  0.000000  0.000000      8.000000
  0.363636  0.000000  0.000000      8.000000
  0.454545  0.000000  0.000000      8.000000
  0.090909  0.090909  0.000000      6.000000
  0.181818  0.090909  0.000000     24.000000
  0.272727  0.090909  0.000000     24.000000
  0.363636  0.090909  0.000000     24.000000
  0.454545  0.090909  0.000000     24.000000
 -0.454545  0.090909  0.000000     24.000000
 -0.363636  0.090909  0.000000     24.000000
 -0.272727  0.090909  0.000000     24.000000
 -0.181818  0.090909  0.000000     24.000000
 -0.090909  0.090909  0.000000     12.000000
  0.181818  0.181818  0.000000      6.000000
  0.272727  0.181818  0.000000     24.000000
  0.363636  0.181818  0.000000     24.000000
  0.454545  0.181818  0.000000     24.000000
 -0.454545  0.181818  0.000000     24.000000
 -0.363636  0.181818  0.000000     24.000000
 -0.272727  0.181818  0.000000     24.000000
 -0.181818  0.181818  0.000000     12.000000
  0.272727  0.272727  0.000000      6.000000
  0.363636  0.272727  0.000000     24.000000
  0.454545  0.272727  0.000000     24.000000
 -0.454545  0.272727  0.000000     24.000000
 -0.363636  0.272727  0.000000     24.000000
 -0.272727  0.272727  0.000000     12.000000
  0.363636  0.363636  0.000000      6.000000
  0.454545  0.363636  0.000000     24.000000
 -0.454545  0.363636  0.000000     24.000000
 -0.363636  0.363636  0.000000     12.000000
  0.454545  0.454545  0.000000      6.000000
 -0.454545  0.454545  0.000000     12.000000
  0.272727  0.181818  0.090909     24.000000
  0.363636  0.181818  0.090909     48.000000
  0.454545  0.181818  0.090909     48.000000
 -0.454545  0.181818  0.090909     48.000000
  0.363636  0.272727  0.090909     24.000000
  0.454545  0.272727  0.090909     48.000000
 -0.454545  0.272727  0.090909     48.000000
 -0.363636  0.272727  0.090909     48.000000
 -0.272727  0.272727  0.090909     48.000000
 -0.181818  0.272727  0.090909     24.000000
  0.454545  0.363636  0.090909     24.000000
 -0.454545  0.363636  0.090909     48.000000
 -0.363636  0.363636  0.090909     48.000000
 -0.272727  0.363636  0.090909     24.000000
 -0.454545  0.454545  0.090909     24.000000
 -0.363636  0.454545  0.090909     24.000000
 -0.454545  0.363636  0.181818     24.000000
 -0.363636  0.363636  0.181818     48.000000
 -0.363636  0.454545  0.181818     24.000000
 -0.272727  0.454545  0.181818     24.000000

 Following cartesian coordinates:
            Coordinates               Weight
  0.000000  0.000000  0.000000      1.000000
  0.024003 -0.008486  0.000000      8.000000
  0.048006 -0.016973  0.000000      8.000000
  0.072009 -0.025459  0.000000      8.000000
  0.096012 -0.033945  0.000000      8.000000
  0.120015 -0.042432  0.000000      8.000000
  0.024003  0.016973  0.000000      6.000000
  0.048006  0.008486  0.000000     24.000000
  0.072009  0.000000  0.000000     24.000000
  0.096012 -0.008486  0.000000     24.000000
  0.120015 -0.016973  0.000000     24.000000
 -0.120015  0.067891  0.000000     24.000000
 -0.096012  0.059404  0.000000     24.000000
 -0.072009  0.050918  0.000000     24.000000
 -0.048006  0.042432  0.000000     24.000000
 -0.024003  0.033945  0.000000     12.000000
  0.048006  0.033945  0.000000      6.000000
  0.072009  0.025459  0.000000     24.000000
  0.096012  0.016973  0.000000     24.000000
  0.120015  0.008486  0.000000     24.000000
 -0.120015  0.093349  0.000000     24.000000
 -0.096012  0.084863  0.000000     24.000000
 -0.072009  0.076377  0.000000     24.000000
 -0.048006  0.067891  0.000000     12.000000
  0.072009  0.050918  0.000000      6.000000
  0.096012  0.042432  0.000000     24.000000
  0.120015  0.033945  0.000000     24.000000
 -0.120015  0.118808  0.000000     24.000000
 -0.096012  0.110322  0.000000     24.000000
 -0.072009  0.101836  0.000000     12.000000
  0.096012  0.067891  0.000000      6.000000
  0.120015  0.059404  0.000000     24.000000
 -0.120015  0.144267  0.000000     24.000000
 -0.096012  0.135781  0.000000     12.000000
  0.120015  0.084863  0.000000      6.000000
 -0.120015  0.169726  0.000000     12.000000
  0.060007  0.016973  0.020787     24.000000
  0.084010  0.008486  0.020787     48.000000
  0.108013  0.000000  0.020787     48.000000
 -0.132016  0.084863  0.020787     48.000000
  0.084010  0.033945  0.020787     24.000000
  0.108013  0.025459  0.020787     48.000000
 -0.132016  0.110322  0.020787     48.000000
 -0.108013  0.101836  0.020787     48.000000
 -0.084010  0.093349  0.020787     48.000000
 -0.060007  0.084863  0.020787     24.000000
  0.108013  0.050918  0.020787     24.000000
 -0.132016  0.135781  0.020787     48.000000
 -0.108013  0.127295  0.020787     48.000000
 -0.084010  0.118808  0.020787     24.000000
 -0.132016  0.161240  0.020787     24.000000
 -0.108013  0.152754  0.020787     24.000000
[...]
  -0.12001463  0.09334946  0.00000000       0.018
  -0.09601170  0.08486315  0.00000000       0.018
  -0.07200878  0.07637684  0.00000000       0.018
  -0.04800585  0.06789052  0.00000000       0.009
   0.07200878  0.05091790  0.00000000       0.005
   0.09601170  0.04243159  0.00000000       0.018
   0.12001463  0.03394527  0.00000000       0.018
  -0.12001463  0.11880841  0.00000000       0.018
  -0.09601170  0.11032210  0.00000000       0.018
  -0.07200878  0.10183578  0.00000000       0.009
   0.09601170  0.06789054  0.00000000       0.005
   0.12001463  0.05940422  0.00000000       0.018
  -0.12001463  0.14426736  0.00000000       0.018
  -0.09601170  0.13578105  0.00000000       0.009
   0.12001463  0.08486317  0.00000000       0.005
  -0.12001463  0.16972631  0.00000000       0.009
   0.06000732  0.01697264  0.02078714       0.018
   0.08401024  0.00848633  0.02078714       0.036
   0.10801317  0.00000001  0.02078714       0.036
  -0.13201609  0.08486315  0.02078714       0.036
   0.08401024  0.03394527  0.02078714       0.018
   0.10801317  0.02545896  0.02078714       0.036
  -0.13201609  0.11032210  0.02078714       0.036
  -0.10801317  0.10183578  0.02078714       0.036
  -0.08401024  0.09334947  0.02078714       0.036
  -0.06000731  0.08486316  0.02078714       0.018
   0.10801317  0.05091791  0.02078714       0.018
  -0.13201609  0.13578104  0.02078714       0.036
  -0.10801317  0.12729473  0.02078714       0.036
  -0.08401024  0.11880842  0.02078714       0.018
  -0.13201609  0.16123999  0.02078714       0.018
  -0.10801317  0.15275368  0.02078714       0.018
  -0.14401755  0.12729473  0.04157428       0.018
  -0.12001463  0.11880842  0.04157428       0.036
  -0.12001463  0.14426736  0.04157428       0.018
  -0.09601170  0.13578105  0.04157428       0.018

 k-points in reciprocal lattice and weights: k-points
   0.00000000  0.00000000  0.00000000       0.001
   0.09090909  0.00000000  0.00000000       0.006
   0.18181818  0.00000000  0.00000000       0.006
   0.27272727  0.00000000  0.00000000       0.006
   0.36363636  0.00000000  0.00000000       0.006
   0.45454545  0.00000000  0.00000000       0.006
   0.09090909  0.09090909  0.00000000       0.005
   0.18181818  0.09090909  0.00000000       0.018
   0.27272727  0.09090909  0.00000000       0.018
   0.36363636  0.09090909  0.00000000       0.018
   0.45454545  0.09090909  0.00000000       0.018
  -0.45454545  0.09090909  0.00000000       0.018
  -0.36363636  0.09090909  0.00000000       0.018
  -0.27272727  0.09090909  0.00000000       0.018
  -0.18181818  0.09090909  0.00000000       0.018
  -0.09090909  0.09090909  0.00000000       0.009
   0.18181818  0.18181818  0.00000000       0.005
   0.27272727  0.18181818  0.00000000       0.018
   0.36363636  0.18181818  0.00000000       0.018
   0.45454545  0.18181818  0.00000000       0.018
  -0.45454545  0.18181818  0.00000000       0.018
  -0.36363636  0.18181818  0.00000000       0.018
  -0.27272727  0.18181818  0.00000000       0.018
  -0.18181818  0.18181818  0.00000000       0.009
   0.27272727  0.27272727  0.00000000       0.005
   0.36363636  0.27272727  0.00000000       0.018
   0.45454545  0.27272727  0.00000000       0.018
  -0.45454545  0.27272727  0.00000000       0.018
  -0.36363636  0.27272727  0.00000000       0.018
  -0.27272727  0.27272727  0.00000000       0.009
   0.36363636  0.36363636  0.00000000       0.005
   0.45454545  0.36363636  0.00000000       0.018
  -0.45454545  0.36363636  0.00000000       0.018
  -0.36363636  0.36363636  0.00000000       0.009
   0.45454545  0.45454545  0.00000000       0.005
  -0.45454545  0.45454545  0.00000000       0.009
   0.27272727  0.18181818  0.09090909       0.018
   0.36363636  0.18181818  0.09090909       0.036
   0.45454545  0.18181818  0.09090909       0.036
  -0.45454545  0.18181818  0.09090909       0.036
   0.36363636  0.27272727  0.09090909       0.018
   0.45454545  0.27272727  0.09090909       0.036
  -0.45454545  0.27272727  0.09090909       0.036
  -0.36363636  0.27272727  0.09090909       0.036
  -0.27272727  0.27272727  0.09090909       0.036
  -0.18181818  0.27272727  0.09090909       0.018
   0.45454545  0.36363636  0.09090909       0.018
  -0.45454545  0.36363636  0.09090909       0.036
  -0.36363636  0.36363636  0.09090909       0.036
  -0.27272727  0.36363636  0.09090909       0.018
  -0.45454545  0.45454545  0.09090909       0.018
  -0.36363636  0.45454545  0.09090909       0.018
  -0.45454545  0.36363636  0.18181818       0.018
  -0.36363636  0.36363636  0.18181818       0.036
  -0.36363636  0.45454545  0.18181818       0.018
  -0.27272727  0.45454545  0.18181818       0.018

 position of ions in fractional coordinates (direct lattice)
   0.00000000  0.00000000  0.00000000
   0.25000000  0.25000000  0.25000000

 position of ions in cartesian coordinates  (Angst):
   0.00000000  0.00000000  0.00000000
   1.26247225  0.89270275  2.18666625

 k-point  1 :   0.0000 0.0000 0.0000  plane waves:    1639
 k-point  2 :   0.0909 0.0000 0.0000  plane waves:    1570
 k-point  3 :   0.1818 0.0000 0.0000  plane waves:    1582
 k-point  4 :   0.2727 0.0000 0.0000  plane waves:    1594
 k-point  5 :   0.3636 0.0000 0.0000  plane waves:    1607
 k-point  6 :   0.4545 0.0000 0.0000  plane waves:    1586
 k-point  7 :   0.0909 0.0909 0.0000  plane waves:    1579
 k-point  8 :   0.1818 0.0909 0.0000  plane waves:    1577
 k-point  9 :   0.2727 0.0909 0.0000  plane waves:    1588
 k-point 10 :   0.3636 0.0909 0.0000  plane waves:    1590
 k-point 11 :   0.4545 0.0909 0.0000  plane waves:    1589
 k-point 12 :  -0.4545 0.0909 0.0000  plane waves:    1589
 k-point 13 :  -0.3636 0.0909 0.0000  plane waves:    1594
 k-point 14 :  -0.2727 0.0909 0.0000  plane waves:    1583
 k-point 15 :  -0.1818 0.0909 0.0000  plane waves:    1588
 k-point 16 :  -0.0909 0.0909 0.0000  plane waves:    1576
 k-point 17 :   0.1818 0.1818 0.0000  plane waves:    1591
 k-point 18 :   0.2727 0.1818 0.0000  plane waves:    1591
 k-point 19 :   0.3636 0.1818 0.0000  plane waves:    1596
 k-point 20 :   0.4545 0.1818 0.0000  plane waves:    1603
 k-point 21 :  -0.4545 0.1818 0.0000  plane waves:    1585
 k-point 22 :  -0.3636 0.1818 0.0000  plane waves:    1590
 k-point 23 :  -0.2727 0.1818 0.0000  plane waves:    1583
 k-point 24 :  -0.1818 0.1818 0.0000  plane waves:    1586
 k-point 25 :   0.2727 0.2727 0.0000  plane waves:    1596
 k-point 26 :   0.3636 0.2727 0.0000  plane waves:    1591
 k-point 27 :   0.4545 0.2727 0.0000  plane waves:    1600
 k-point 28 :  -0.4545 0.2727 0.0000  plane waves:    1597
 k-point 29 :  -0.3636 0.2727 0.0000  plane waves:    1589
 k-point 30 :  -0.2727 0.2727 0.0000  plane waves:    1592
 k-point 31 :   0.3636 0.3636 0.0000  plane waves:    1600
 k-point 32 :   0.4545 0.3636 0.0000  plane waves:    1600
 k-point 33 :  -0.4545 0.3636 0.0000  plane waves:    1603
 k-point 34 :  -0.3636 0.3636 0.0000  plane waves:    1592
 k-point 35 :   0.4545 0.4545 0.0000  plane waves:    1604
 k-point 36 :  -0.4545 0.4545 0.0000  plane waves:    1598
 k-point 37 :   0.2727 0.1818 0.0909  plane waves:    1583
 k-point 38 :   0.3636 0.1818 0.0909  plane waves:    1589
 k-point 39 :   0.4545 0.1818 0.0909  plane waves:    1598
 k-point 40 :  -0.4545 0.1818 0.0909  plane waves:    1585
 k-point 41 :   0.3636 0.2727 0.0909  plane waves:    1591
 k-point 42 :   0.4545 0.2727 0.0909  plane waves:    1599
 k-point 43 :  -0.4545 0.2727 0.0909  plane waves:    1592
 k-point 44 :  -0.3636 0.2727 0.0909  plane waves:    1589
 k-point 45 :  -0.2727 0.2727 0.0909  plane waves:    1591
 k-point 46 :  -0.1818 0.2727 0.0909  plane waves:    1588
 k-point 47 :   0.4545 0.3636 0.0909  plane waves:    1603
 k-point 48 :  -0.4545 0.3636 0.0909  plane waves:    1592
 k-point 49 :  -0.3636 0.3636 0.0909  plane waves:    1594
 k-point 50 :  -0.2727 0.3636 0.0909  plane waves:    1594
 k-point 51 :  -0.4545 0.4545 0.0909  plane waves:    1600
 k-point 52 :  -0.3636 0.4545 0.0909  plane waves:    1607
 k-point 53 :  -0.4545 0.3636 0.1818  plane waves:    1589
 k-point 54 :  -0.3636 0.3636 0.1818  plane waves:    1593
 k-point 55 :  -0.3636 0.4545 0.1818  plane waves:    1600
 k-point 56 :  -0.2727 0.4545 0.1818  plane waves:    1598

 maximum and minimum number of plane-waves per node :      1639     1570

 maximum number of plane-waves:      1639
 maximum index in each direction:
   IXMAX=    8   IYMAX=    8   IZMAX=    8
   IXMIN=   -8   IYMIN=   -8   IZMIN=   -8

 NGX is ok and might be reduce to  34
 NGY is ok and might be reduce to  34
 NGZ is ok and might be reduce to  34

 serial   3D FFT for wavefunctions
 parallel 3D FFT for charge:
    minimum data exchange during FFTs selected (reduces bandwidth)

 Broyden mixing: mesh for mixing (old mesh)
   NGX = 17   NGY = 17   NGZ = 17
  (NGX  = 72   NGY  = 72   NGZ  = 72)
  gives a total of   4913 points

 initial charge density was supplied:
 charge density of overlapping atoms calculated
 number of electron      18.0000000 magnetization
 keeping initial charge density in first step

 Maximum index for augmentation-charges         2200 (set IRDMAX)

 First call to EWALD:  gamma=   0.455
 Maximum number of real-space cells 3x 3x 3
 Maximum number of reciprocal cells 3x 3x 3

 FEWALD executed in parallel

----------------------------------------- Iteration    1(   1)  ---------------------------------------

 eigenvalue-minimisations  :  2240
 total energy-change (2. order) : 0.2942632E+02  (-0.9197668E+03)
 number of electron      18.0000000 magnetization
 augmentation part       18.0000000 magnetization

 Free energy of the ion-electron system (eV)
  alpha Z        PSCENC =        41.44870044
  Ewald energy   TEWEN  =     -1095.15256513
  -1/2 Hartree   DENC   =      -770.56142288
  -exchange  EXHF       =         0.00000000
  -V(xc)+E(xc)   XCENC  =        28.71037720
  PAW double counting   =      1425.90876659    -1564.99561147
  entropy T*S    EENTRO =        -0.00011740
  eigenvalues    EBANDS =        -8.29314035
  atomic energy  EATOM  =      1972.36132945
  free energy    TOTEN  =        29.42631645 eV

  energy without entropy =       29.42643385  energy(sigma->0) =       29.42637515

[...]

 eigenvalue-minimisations  :  2720
 total energy-change (2. order) :-0.3436031E+02  (-0.3380070E+02)
 number of electron      18.0000000 magnetization
 augmentation part       18.0000000 magnetization

[...]

 Broyden mixing:
  rms(total) = 0.20076E+00    rms(broyden)= 0.20075E+00
  rms(prec ) = 0.64441E+00
  weight for this iteration     100.00

[...]

 eigenvalues of (default mixing * dielectric matrix)
  average eigenvalue GAMMA=   1.1185
  1.1185

[...]

 eigenvalue-minimisations  :  2820
 total energy-change (2. order) : 0.9086521E-03  (-0.9226852E-03)
 number of electron      18.0000013 magnetization
 augmentation part        6.8610728 magnetization

[...]

 Broyden mixing:
  rms(total) = 0.21522E-03    rms(broyden)= 0.21522E-03
  rms(prec ) = 0.49700E-03
  weight for this iteration     100.00

 eigenvalues of (default mixing * dielectric matrix)
  average eigenvalue GAMMA=   1.7432
  3.1479  2.5784  1.5737  0.9443  1.0206  1.1946

[...]

----------------------------------------- Iteration    1(  12)  ---------------------------------------

 eigenvalue-minimisations  :  3800
 total energy-change (2. order) :-0.4260285E-06  (-0.9233554E-07)
 number of electron      18.0000013 magnetization
 augmentation part        6.8607997 magnetization

 Free energy of the ion-electron system (eV)
  alpha Z        PSCENC =        41.44870044
  Ewald energy   TEWEN  =     -1095.15256513
  -1/2 Hartree   DENC   =      -761.72038178
  -exchange  EXHF       =         0.00000000
  -V(xc)+E(xc)   XCENC  =        28.71366511
  PAW double counting   =      1443.74149938    -1582.95707018
  entropy T*S    EENTRO =        -0.00000000
  eigenvalues    EBANDS =       -51.78567906
  atomic energy  EATOM  =      1972.36132945
  free energy    TOTEN  =        -5.35050177 eV

  energy without entropy =       -5.35050177  energy(sigma->0) =       -5.35050177

 average (electrostatic) potential at core
  the test charge radii are     0.9521  1.1897
  (the norm of the test charge is              1.0000)
       1 -36.3047       2 -90.9948

 E-fermi :   2.8526     XC(G=0):  -8.7678     alpha+bet : -7.9798

 k-point   1 :       0.0000    0.0000    0.0000
  band No.  band energies     occupation
      1      -8.7159      2.00000
      2      -3.9830      2.00000
      3      -3.9830      2.00000
      4      -3.9830      2.00000
      5      -3.7755      2.00000
      6      -3.7755      2.00000
      7       2.8128      2.00000
      8       2.8128      2.00000
      9       2.8128      2.00000
     10       3.8915      0.00000
     11       7.2463      0.00000
     12       7.2463      0.00000
     13       7.2463      0.00000
     14      10.0984      0.00000
     15      12.3269      0.00000
     16      12.3269      0.00000
     17      13.3914      0.00000
     18      13.3914      0.00000
     19      13.3914      0.00000
     20      16.1789      0.00000

[...]

 k-point  56 :      -0.2727    0.4545    0.1818
  band No.  band energies     occupation
      1      -7.6466      2.00000
      2      -3.9029      2.00000
      3      -3.8766      2.00000
      4      -3.8000      2.00000
      5      -3.7829      2.00000
      6      -3.5249      2.00000
      7      -1.8275      2.00000
      8       0.0587      2.00000
      9       0.5990      2.00000
     10       6.8369      0.00000
     11       7.7580      0.00000
     12       8.7011      0.00000
     13       9.2802      0.00000
     14      12.6069      0.00000
     15      13.8106      0.00000
     16      14.9579      0.00000
     17      15.7190      0.00000
     18      17.2261      0.00000
     19      17.6907      0.00000
     20      19.0776      0.00000

 soft charge-density along one line, spin component           1
         0         1         2         3         4         5         6         7         8         9
 total charge-density along one line

------------------------ aborting loop because EDIFF is reached ----------------------------------------

  FORCE on cell =-STRESS in cart. coord.  units (eV):
  Direction    XX          YY          ZZ          XY          YZ          ZX
  Alpha Z    41.44870    41.44870    41.44870
  Ewald    -365.05101  -365.05096  -365.05101    -0.00004     0.00004     0.00005
  Hartree   253.90682   253.90683   253.90686    -0.00003    -0.00000    -0.00000
  E(xc)     -95.95569   -95.95569   -95.95569     0.00000     0.00000     0.00000
  Local     -48.75521   -48.75528   -48.75522     0.00010     0.00003     0.00004
  n-local    73.51486    78.30746    82.95591    -0.24744    -1.10883    -0.19869
  augment    14.45679    14.45680    14.45677    -0.00002    -0.00003    -0.00004
  Kinetic   117.13414   121.37046   126.60014     0.26068    -0.09474    -0.31438
  Fock        0.00000     0.00000     0.00000     0.00000     0.00000     0.00000
  Total       0.01139     0.01139     0.01139    -0.00000    -0.00000    -0.00000
  in kB       0.30862     0.30862     0.30862    -0.00000    -0.00000    -0.00000

 VOLUME and BASIS-vectors are now :
  energy-cutoff  :      520.00
  volume of cell :       59.15
      direct lattice vectors                 reciprocal lattice vectors
     3.787417000  0.000000000  2.186666000     0.264032189 -0.093349451  0.000000000
     1.262472000  3.570811000  2.186666000     0.000000000  0.280048426  0.000000000
     0.000000000  0.000000000  4.373333000    -0.132016064 -0.093349466  0.228658554

  length of vectors
     4.373332337  4.373332247  4.373333000     0.280048418  0.280048426  0.280048386

 FORCES acting on ions
    electron-ion (+dipol)            ewald-force                    non-local-force                 convergence-correction
   -.744E-05 -.105E-04 0.235E-04   0.134E-04 0.191E-04 -.441E-04   0.208E-16 -.520E-17 -.139E-16   0.641E-08 0.470E-08 0.999E-08
   0.117E-04 0.165E-04 -.372E-04   -.134E-04 -.191E-04 0.441E-04   -.226E-16 -.885E-16 -.278E-15   0.671E-09 0.327E-09 0.219E-08
   0.424E-05 0.602E-05 -.137E-04   0.753E-15 -.543E-15 -.701E-15   -.173E-17 -.937E-16 -.291E-15   0.709E-08 0.502E-08 0.122E-07

 POSITION                                       TOTAL-FORCE (eV/Angst)
      0.00000      0.00000      0.00000         0.000000      0.000000     -0.000000
      1.26247      0.89270      2.18667        -0.000000     -0.000000      0.000000
    total drift:                                0.000004      0.000006     -0.000014

  FREE ENERGIE OF THE ION-ELECTRON SYSTEM (eV)
  free  energy   TOTEN  =        -5.35050177 eV

  energy  without entropy=       -5.35050177  energy(sigma->0) =       -5.35050177

 writing wavefunctions