 vasp.5.3.3 18Dez12 (build Dec 13 2014 13:36:02) complex

 executed on             LinuxIFC date 2018.11.28  00:58:24

 INCAR:
 POTCAR:   PAW_PBE Ga 08Apr2002

 POTCAR:   PAW_PBE Ga 08Apr2002
   VRHFIN =Ga: s2p1

   TITEL  = PAW_PBE Ga 08Apr2002
   POMASS =   69.723; ZVAL   =    3.000    mass and valenz
   ENMAX  =  134.678; ENMIN  =  101.009 eV
   QCUT   =   -3.146; QGAM   =    6.292    optimization parameters

   Description
     l     E      TYP  RCUT    TYP  RCUT
     0   .000     23  2.600
     0   .000     23  2.600
     1   .000     23  2.600
     1   .000     23  2.600
     2   .100     23  2.600
     3  -.100      7  2.600

 PAW_PBE Ga 08Apr2002                   :

 POSCAR: Ge8
  positions in direct lattice
 exchange correlation table for  LEXCH =        8
   RHO(1)=    0.500       N(1)  =     2000
   RHO(2)=  100.500       N(2)  =     4000

 ion  position               nearest neighbor table
   1  0.750  0.750  0.750-   2 2.50   4 2.50   6 2.50   8 2.50
   2  0.500  0.000  0.000-   1 2.50   3 2.50   5 2.50   7 2.50
   3  0.750  0.250  0.250-   2 2.50   4 2.50   6 2.50   8 2.50
   4  0.500  0.500  0.500-   1 2.50   3 2.50   5 2.50   7 2.50
   5  0.250  0.750  0.250-   2 2.50   4 2.50   6 2.50   8 2.50
   6  0.000  0.000  0.500-   1 2.50   3 2.50   5 2.50   7 2.50
   7  0.250  0.250  0.750-   2 2.50   4 2.50   6 2.50   8 2.50
   8  0.000  0.500  0.000-   1 2.50   3 2.50   5 2.50   7 2.50

  LATTYP: Found a simple cubic cell.
 ALAT       =     5.7628630000

  Lattice vectors:

 A1 = (   5.7628630000,   0.0000000000,   0.0000000000)
 A2 = (   0.0000000000,   5.7628630000,   0.0000000000)
 A3 = (   0.0000000000,   0.0000000000,   5.7628630000)

Analysis of symmetry for initial positions (statically):
 Subroutine PRICEL returns following result:

  LATTYP: Found a face centered cubic cell.
 ALAT       =     5.7628630000

[...]

   4 primitive cells build up your supercell.

 Routine SETGRP: Setting up the symmetry group for a
 simple cubic supercell.

 Subroutine GETGRP returns: Found 48 space group operations
 (whereof 24 operations were pure point group operations)
 out of a pool of 48 trial point group operations.

The static configuration has the point symmetry T_d .
 The point group associated with its full space group is O_h .

Analysis of symmetry for dynamics (positions and initial velocities):
 Subroutine PRICEL returns following result:

[...]

The dynamic configuration has the point symmetry T_d .
 The point group associated with its full space group is O_h .

Analysis of constrained symmetry for selective dynamics:
 Subroutine PRICEL returns following result:

  LATTYP: Found a face centered cubic cell.
 ALAT       =     5.7628630000

  Lattice vectors:

 A1 = (   2.8814315000,   2.8814315000,  -0.0000000000)
 A2 = (   2.8814315000,   0.0000000000,  -2.8814315000)
 A3 = (   0.0000000000,   2.8814315000,  -2.8814315000)

   4 primitive cells build up your supercell.

 Routine SETGRP: Setting up the symmetry group for a
 simple cubic supercell.

 Subroutine GETGRP returns: Found 48 space group operations
 (whereof 24 operations were pure point group operations)
 out of a pool of 48 trial point group operations.

The constrained configuration has the point symmetry T_d .
 The point group associated with its full space group is O_h .

 irot  :   1
 isymop:   1   0   0
           0   1   0
           0   0   1

 gtrans:     0.0000000     0.0000000    -0.0000000

 ptrans:     0.0000000     0.0000000     0.0000000
 rotmap:
 (   1->   1)  (   2->   2)  (   3->   3)  (   4->   4)  (   5->   5)
 (   6->   6)  (   7->   7)  (   8->   8)

[...]

 irot  :  48
 isymop:   0   0  -1
           0  -1   0
          -1   0   0

 gtrans:     0.7500000     0.7500000    -0.7500000

[...]

 ptrans:     0.0000000     0.5000000     0.5000000
 rotmap:
 (   1->   8)  (   2->   3)  (   3->   2)  (   4->   5)  (   5->   4)
 (   6->   7)  (   7->   6)  (   8->   1)

 KPOINTS: ENCUT/KPOINTS Conv

Automatic generation of k-mesh.
Space group operators:
 irot       det(A)        alpha          n_x          n_y          n_z        tau_x        tau_y        tau_z
    1     1.000000     0.000001     1.000000     0.000000     0.000000     0.000000     0.000000    -0.000000
    2     1.000000   120.000000    -0.577350    -0.577350    -0.577350     0.000000     0.000000    -0.000000
    3     1.000000   120.000000     0.577350     0.577350     0.577350     0.000000     0.000000    -0.000000
    4    -1.000000    90.000000     0.000000     0.000000    -1.000000     0.000000     0.000000    -0.000000
    5    -1.000000   180.000000     0.000000     0.707107     0.707107     0.000000     0.000000    -0.000000
    6    -1.000000    90.000000     0.000000     1.000000     0.000000     0.000000     0.000000    -0.000000
    7     1.000000   180.000000     0.000000     0.000000     1.000000     0.000000     0.000000    -0.000000
    8     1.000000   120.000000    -0.577350     0.577350     0.577350     0.000000     0.000000    -0.000000
    9     1.000000   120.000000    -0.577350     0.577350    -0.577350     0.000000     0.000000    -0.000000
   10    -1.000000    90.000000     0.000000     0.000000     1.000000     0.000000     0.000000    -0.000000
   11    -1.000000    90.000000    -1.000000     0.000000     0.000000     0.000000     0.000000    -0.000000
   12    -1.000000   180.000000     0.707107     0.000000     0.707107     0.000000     0.000000    -0.000000
   13     1.000000   120.000000     0.577350    -0.577350     0.577350     0.000000     0.000000    -0.000000
   14     1.000000   120.000000    -0.577350    -0.577350     0.577350     0.000000     0.000000    -0.000000
   15     1.000000   180.000000     1.000000     0.000000     0.000000     0.000000     0.000000    -0.000000
   16    -1.000000    90.000000     0.000000    -1.000000     0.000000     0.000000     0.000000    -0.000000
   17    -1.000000   180.000000     0.707107     0.707107     0.000000     0.000000     0.000000    -0.000000
   18    -1.000000    90.000000     1.000000     0.000000     0.000000     0.000000     0.000000    -0.000000
   19     1.000000   120.000000     0.577350    -0.577350    -0.577350     0.000000     0.000000    -0.000000
   20     1.000000   180.000000     0.000000     1.000000     0.000000     0.000000     0.000000    -0.000000
   21     1.000000   120.000000     0.577350     0.577350    -0.577350     0.000000     0.000000    -0.000000
   22    -1.000000   180.000000     0.000000    -0.707107     0.707107     0.000000     0.000000    -0.000000
   23    -1.000000   180.000000     0.707107    -0.707107     0.000000     0.000000     0.000000    -0.000000
   24    -1.000000   180.000000     0.707107     0.000000    -0.707107     0.000000     0.000000    -0.000000
   25    -1.000000     0.000001     1.000000     0.000000     0.000000     0.750000     0.750000    -0.750000
   26    -1.000000   120.000000    -0.577350    -0.577350    -0.577350     0.750000     0.750000    -0.750000
   27    -1.000000   120.000000     0.577350     0.577350     0.577350     0.750000     0.750000    -0.750000
   28     1.000000    90.000000     0.000000     0.000000    -1.000000     0.750000     0.750000    -0.750000
   29     1.000000   180.000000     0.000000     0.707107     0.707107     0.750000     0.750000    -0.750000
   30     1.000000    90.000000     0.000000     1.000000     0.000000     0.750000     0.750000    -0.750000
   31    -1.000000   180.000000     0.000000     0.000000     1.000000     0.750000     0.750000    -0.750000
   32    -1.000000   120.000000    -0.577350     0.577350     0.577350     0.750000     0.750000    -0.750000
   33    -1.000000   120.000000    -0.577350     0.577350    -0.577350     0.750000     0.750000    -0.750000
   34     1.000000    90.000000     0.000000     0.000000     1.000000     0.750000     0.750000    -0.750000
   35     1.000000    90.000000    -1.000000     0.000000     0.000000     0.750000     0.750000    -0.750000
   36     1.000000   180.000000     0.707107     0.000000     0.707107     0.750000     0.750000    -0.750000
   37    -1.000000   120.000000     0.577350    -0.577350     0.577350     0.750000     0.750000    -0.750000
   38    -1.000000   120.000000    -0.577350    -0.577350     0.577350     0.750000     0.750000    -0.750000
   39    -1.000000   180.000000     1.000000     0.000000     0.000000     0.750000     0.750000    -0.750000
   40     1.000000    90.000000     0.000000    -1.000000     0.000000     0.750000     0.750000    -0.750000
   41     1.000000   180.000000     0.707107     0.707107     0.000000     0.750000     0.750000    -0.750000
   42     1.000000    90.000000     1.000000     0.000000     0.000000     0.750000     0.750000    -0.750000
   43    -1.000000   120.000000     0.577350    -0.577350    -0.577350     0.750000     0.750000    -0.750000
   44    -1.000000   180.000000     0.000000     1.000000     0.000000     0.750000     0.750000    -0.750000
   45    -1.000000   120.000000     0.577350     0.577350    -0.577350     0.750000     0.750000    -0.750000
   46     1.000000   180.000000     0.000000    -0.707107     0.707107     0.750000     0.750000    -0.750000
   47     1.000000   180.000000     0.707107    -0.707107     0.000000     0.750000     0.750000    -0.750000
   48     1.000000   180.000000     0.707107     0.000000    -0.707107     0.750000     0.750000    -0.750000

 Subroutine IBZKPT returns following result:

 Found     10 irreducible k-points:

 Following reciprocal coordinates:
            Coordinates               Weight
  0.083333  0.083333  0.083333      8.000000
  0.250000  0.083333  0.083333     24.000000
  0.416667  0.083333  0.083333     24.000000
  0.250000  0.250000  0.083333     24.000000
  0.416667  0.250000  0.083333     48.000000
  0.416667  0.416667  0.083333     24.000000
  0.250000  0.250000  0.250000      8.000000
  0.416667  0.250000  0.250000     24.000000
  0.416667  0.416667  0.250000     24.000000
  0.416667  0.416667  0.416667      8.000000

 Following cartesian coordinates:
            Coordinates               Weight
  0.014460  0.014460  0.014460      8.000000
  0.043381  0.014460  0.014460     24.000000
  0.072302  0.014460  0.014460     24.000000
  0.043381  0.043381  0.014460     24.000000
  0.072302  0.043381  0.014460     48.000000
  0.072302  0.072302  0.014460     24.000000
  0.043381  0.043381  0.043381      8.000000
  0.072302  0.043381  0.043381     24.000000
  0.072302  0.072302  0.043381     24.000000
  0.072302  0.072302  0.072302      8.000000

 I would recommend the setting:
   dimension x,y,z NGX =    37 NGY =   37 NGZ =   37
 SYSTEM =  unknown system
 POSCAR =  Ge8

 Startparameter for this run:
   NWRITE =      2    write-flag & timer
   PREC   = normal    normal or accurate (medium, high low for compatibility)
   ISTART =      0    job   : 0-new  1-cont  2-samecut
   ICHARG =      2    charge: 1-file 2-atom 10-const
   ISPIN  =      1    spin polarized calculation?
   LNONCOLLINEAR =      F non collinear calculations
   LSORBIT =      F    spin-orbit coupling
   INIWAV =      1    electr: 0-lowe 1-rand  2-diag
   LASPH  =      F    aspherical Exc in radial PAW
[...]
   0.41666667  0.41666667  0.25000000       0.111
   0.41666667  0.41666667  0.41666667       0.037

 position of ions in fractional coordinates (direct lattice)
   0.75000000  0.75000000  0.75000000
   0.50000000  0.00000000  0.00000000
   0.75000000  0.25000000  0.25000000
   0.50000000  0.50000000  0.50000000
   0.25000000  0.75000000  0.25000000
   0.00000000  0.00000000  0.50000000
   0.25000000  0.25000000  0.75000000
   0.00000000  0.50000000  0.00000000

 position of ions in cartesian coordinates  (Angst):
   4.32214725  4.32214725  4.32214725
   2.88143150  0.00000000  0.00000000
   4.32214725  1.44071575  1.44071575
   2.88143150  2.88143150  2.88143150
   1.44071575  4.32214725  1.44071575
   0.00000000  0.00000000  2.88143150
   1.44071575  1.44071575  4.32214725
   0.00000000  2.88143150  0.00000000

 k-point  1 :   0.0833 0.0833 0.0833  plane waves:    8094
 k-point  2 :   0.2500 0.0833 0.0833  plane waves:    8043
 k-point  3 :   0.4167 0.0833 0.0833  plane waves:    8047
 k-point  4 :   0.2500 0.2500 0.0833  plane waves:    8062
 k-point  5 :   0.4167 0.2500 0.0833  plane waves:    8045
 k-point  6 :   0.4167 0.4167 0.0833  plane waves:    8043
 k-point  7 :   0.2500 0.2500 0.2500  plane waves:    8024
 k-point  8 :   0.4167 0.2500 0.2500  plane waves:    8041
 k-point  9 :   0.4167 0.4167 0.2500  plane waves:    8037
 k-point 10 :   0.4167 0.4167 0.4167  plane waves:    8039

 maximum and minimum number of plane-waves per node :      8094     8024

 maximum number of plane-waves:      8094
 maximum index in each direction:
   IXMAX=   12   IYMAX=   12   IZMAX=   12
   IXMIN=  -12   IYMIN=  -12   IZMIN=  -12

 WARNING: aliasing errors must be expected set NGX to  50 to avoid them
 WARNING: aliasing errors must be expected set NGY to  50 to avoid them
 WARNING: aliasing errors must be expected set NGZ to  50 to avoid them
 aliasing errors are usually negligible using standard VASP settings
 and one can safely disregard these warnings

 serial   3D FFT for wavefunctions
 parallel 3D FFT for charge:
    minimum data exchange during FFTs selected (reduces bandwidth)

 Broyden mixing: mesh for mixing (old mesh)
   NGX = 25   NGY = 25   NGZ = 25
  (NGX  = 80   NGY  = 80   NGZ  = 80)
  gives a total of  15625 points

 initial charge density was supplied:
 charge density of overlapping atoms calculated
 number of electron      24.0000000 magnetization
 keeping initial charge density in first step

 Maximum index for augmentation-charges          989 (set IRDMAX)

 First call to EWALD:  gamma=   0.308
 Maximum number of real-space cells 3x 3x 3
 Maximum number of reciprocal cells 3x 3x 3

 FEWALD executed in parallel

----------------------------------------- Iteration    1(   1)  ---------------------------------------

 eigenvalue-minimisations  :   400
 total energy-change (2. order) : 0.7320570E+02  (-0.1020228E+04)
 number of electron      24.0000000 magnetization
 augmentation part       24.0000000 magnetization

 Free energy of the ion-electron system (eV)
  alpha Z        PSCENC =        59.64982895
  Ewald energy   TEWEN  =      -484.56382983
  -1/2 Hartree   DENC   =       -22.55400904
  -exchange  EXHF       =         0.00000000
  -V(xc)+E(xc)   XCENC  =      -155.28695466
  PAW double counting   =       330.10196642     -140.54714835
  entropy T*S    EENTRO =        -0.00520244
  eigenvalues    EBANDS =        15.46081221
  atomic energy  EATOM  =       470.95023928
  free energy    TOTEN  =        73.20570254 eV

  energy without entropy =       73.21090498  energy(sigma->0) =       73.20830376

[...]

 eigenvalue-minimisations  :   620
 total energy-change (2. order) :-0.9230757E+02  (-0.9189947E+02)
 number of electron      24.0000000 magnetization
 augmentation part       24.0000000 magnetization

[...]

 Broyden mixing:
  rms(total) = 0.27814E+00    rms(broyden)= 0.27814E+00
  rms(prec ) = 0.43619E+00
  weight for this iteration     100.00

[...]

 eigenvalues of (default mixing * dielectric matrix)
  average eigenvalue GAMMA=   2.6177
  2.6177

[...]

 average (electrostatic) potential at core
  the test charge radii are     1.2767
  (the norm of the test charge is              1.0000)
       1 -16.4730       2 -16.4730       3 -16.4730       4 -16.4730       5 -16.4730
       6 -16.4730       7 -16.4730       8 -16.4730

 E-fermi :   0.7182     XC(G=0):  -8.8093     alpha+bet : -6.9444

 k-point   1 :       0.0833    0.0833    0.0833
  band No.  band energies     occupation
      1      -8.7693      2.00000
      2      -5.4287      2.00000
      3      -5.4287      2.00000
      4      -5.4287      2.00000
      5      -4.1828      2.00000
      6      -4.1828      2.00000
      7      -4.1828      2.00000
      8      -0.1159      2.00000
      9      -0.1159      2.00000
     10      -0.1159      2.00000
     11       0.3126      2.00000
     12       0.3126      2.00000
     13       0.3126      2.00000
     14       2.4303      0.00000
     15       3.4646      0.00000
     16       3.4646      0.00000
     17       3.6590      0.00000
     18       3.6590      0.00000
     19       3.6590      0.00000
     20       4.2511      0.00000

[...]

 soft charge-density along one line, spin component           1
         0         1         2         3         4         5         6         7         8         9
 total charge-density along one line

------------------------ aborting loop because EDIFF is reached ----------------------------------------

  FORCE on cell =-STRESS in cart. coord.  units (eV):
  Direction    XX          YY          ZZ          XY          YZ          ZX
  Alpha Z    59.64983    59.64983    59.64983
  Ewald    -161.52155  -161.52155  -161.52155    -0.00000     0.00000    -0.00000
  Hartree     8.07745     8.07745     8.07745    -0.00000    -0.00000    -0.00000
  E(xc)     -85.62785   -85.62785   -85.62785    -0.00000    -0.00000    -0.00000
  Local     -26.49470   -26.49470   -26.49470    -0.00000     0.00000    -0.00000
  n-local    37.18215    37.04548    36.72567     0.72236     0.92334     0.79293
  augment    29.85790    29.85790    29.85790     0.00000     0.00000     0.00000
  Kinetic   134.83871   137.04723   155.26389     3.26886     7.83861     4.21427
  Fock        0.00000     0.00000     0.00000     0.00000     0.00000     0.00000
  Total       3.30879     3.30879     3.30879     0.00000     0.00000     0.00000
  in kB      27.69905    27.69905    27.69905     0.00000     0.00000     0.00000

 VOLUME and BASIS-vectors are now :
  energy-cutoff  :      700.00
  volume of cell :      191.39
      direct lattice vectors                 reciprocal lattice vectors
     5.762863000  0.000000000  0.000000000     0.173524861  0.000000000  0.000000000
     0.000000000  5.762863000  0.000000000     0.000000000  0.173524861  0.000000000
     0.000000000  0.000000000  5.762863000     0.000000000  0.000000000  0.173524861

[...]

 FORCES acting on ions
    electron-ion (+dipol)            ewald-force                    non-local-force                 convergence-correction
   0.801E-14 0.517E-13 0.168E-12   -.355E-14 0.000E+00 -.178E-14   -.163E-16 -.325E-17 -.217E-17   -.102E-14 -.648E-15 0.242E-14
   0.863E-14 -.163E-13 -.996E-13   0.388E-14 -.205E-14 -.355E-14   0.607E-17 0.104E-16 -.499E-17   -.850E-15 -.155E-16 -.833E-15
   0.925E-14 0.119E-12 0.981E-13   -.355E-14 0.000E+00 -.178E-14   -.477E-17 0.108E-17 -.173E-17   -.117E-14 -.168E-14 -.910E-15
   -.105E-13 0.114E-12 0.174E-13   0.362E-14 -.178E-14 -.369E-14   0.195E-17 0.130E-17 0.585E-17   -.101E-14 0.920E-15 -.144E-15
   0.740E-14 0.401E-13 -.754E-13   -.178E-14 0.178E-14 0.355E-14   -.121E-16 -.369E-17 0.173E-17   -.402E-15 -.646E-15 -.743E-15
   -.247E-14 -.122E-15 0.827E-14   0.357E-14 0.219E-15 0.164E-14   0.158E-16 -.217E-17 0.455E-17   0.965E-15 -.187E-15 -.151E-15
   0.740E-14 -.314E-13 0.608E-14   -.355E-14 0.178E-14 0.355E-14   0.325E-17 -.195E-17 -.564E-17   -.371E-15 -.159E-14 0.237E-14
   -.432E-14 0.606E-14 0.252E-14   0.177E-14 0.866E-17 0.175E-14   0.130E-16 0.000E+00 0.325E-17   0.900E-15 0.922E-15 -.939E-15
   0.234E-13 0.283E-12 0.126E-12   0.404E-15 -.435E-16 -.286E-15   0.694E-17 0.173E-17 0.867E-18   -.295E-14 -.292E-14 0.107E-14

 POSITION                                       TOTAL-FORCE (eV/Angst)
      4.32215      4.32215      4.32215         0.000000      0.000000     -0.000000
      2.88143      0.00000      0.00000        -0.000000     -0.000000     -0.000000
      4.32215      1.44072      1.44072         0.000000     -0.000000     -0.000000
      2.88143      2.88143      2.88143        -0.000000     -0.000000     -0.000000
      1.44072      4.32215      1.44072         0.000000      0.000000      0.000000
      0.00000      0.00000      2.88143        -0.000000     -0.000000     -0.000000
      1.44072      1.44072      4.32215         0.000000      0.000000     -0.000000
      0.00000      2.88143      0.00000        -0.000000      0.000000      0.000000
    total drift:                                0.000000      0.000000      0.000000

  FREE ENERGIE OF THE ION-ELECTRON SYSTEM (eV)
  free  energy   TOTEN  =       -20.89292946 eV

  energy  without entropy=      -20.86500633  energy(sigma->0) =      -20.87896790

[...]

 d Force = 0.0000000E+00[ 0.000E+00, 0.000E+00]  d Energy = 0.1017931E+00-0.102E+00
 d Force = 0.0000000E+00[ 0.000E+00, 0.000E+00]  d Ewald  =-0.9479406E+01 0.948E+01

 Steepest descent step on ions:
 trial-energy change:   -0.101793  1 .order   -0.105270   -0.198062   -0.012478
  (g-gl).g = 0.198E+00      g.g   = 0.198E+00  gl.gl    = 0.000E+00
 g(Force)  = 0.903E-60   g(Stress)= 0.198E+00 ortho     = 0.000E+00
 gamma     =   0.00000
 trial     =   1.00000
 opt step  =   1.07649  (harmonic =   1.06723) maximal distance =0.00000000
 next E    =   -20.995198   (d E  =  -0.10227)

 FEWALD executed in parallel

[...]

 eigenvalue-minimisations  :   400
 total energy-change (2. order) : 0.1216517E-03  (-0.2033580E-04)
 number of electron      23.9999995 magnetization
 augmentation part       -4.4738043 magnetization

[...]

 Broyden mixing:
  rms(total) = 0.63480E-04    rms(broyden)= 0.63480E-04
  rms(prec ) = 0.10292E-03
  weight for this iteration     100.00

 eigenvalues of (default mixing * dielectric matrix)
  average eigenvalue GAMMA=   2.1146
  1.0436  2.6501  2.6501

[...]

----------------------------------------- Iteration    3(   5)  ---------------------------------------

 eigenvalue-minimisations  :   203
 total energy-change (2. order) :-0.5614043E-06  (-0.1825654E-07)
 number of electron      23.9999995 magnetization
 augmentation part       -4.4736480 magnetization

 Free energy of the ion-electron system (eV)
  alpha Z        PSCENC =        55.96551099
  Ewald energy   TEWEN  =      -474.37458880
  -1/2 Hartree   DENC   =       -25.98649916
  -exchange  EXHF       =         0.00000000
  -V(xc)+E(xc)   XCENC  =      -154.25192410
  PAW double counting   =       405.23447363     -216.93623924
  entropy T*S    EENTRO =        -0.02616510
  eigenvalues    EBANDS =       -81.56995998
  atomic energy  EATOM  =       470.95023928
  free energy    TOTEN  =       -20.99515249 eV

  energy without entropy =      -20.96898739  energy(sigma->0) =      -20.98206994

 average (electrostatic) potential at core
  the test charge radii are     1.2767
  (the norm of the test charge is              1.0000)
       1 -16.7891       2 -16.7891       3 -16.7891       4 -16.7891       5 -16.7891
       6 -16.7891       7 -16.7891       8 -16.7891

 E-fermi :   0.4507     XC(G=0):  -8.5697     alpha+bet : -6.5155

[...]

 k-point  10 :       0.4167    0.4167    0.4167
  band No.  band energies     occupation
      1      -7.0104      2.00000
      2      -6.6779      2.00000
      3      -6.6779      2.00000
      4      -6.6779      2.00000
      5      -4.0307      2.00000
      6      -4.0307      2.00000
      7      -4.0307      2.00000
      8      -3.6515      2.00000
      9       1.0210      0.00000
     10       1.0210      0.00000
     11       1.0210      0.00000
     12       1.5577      0.00000
     13       1.5577      0.00000
     14       1.5577      0.00000
     15       1.8039      0.00000
     16       1.8039      0.00000
     17       3.3902      0.00000
     18       4.0343      0.00000
     19       4.0343      0.00000
     20       4.0343      0.00000

 soft charge-density along one line, spin component           1
         0         1         2         3         4         5         6         7         8         9
 total charge-density along one line

------------------------ aborting loop because EDIFF is reached ----------------------------------------

  FORCE on cell =-STRESS in cart. coord.  units (eV):
  Direction    XX          YY          ZZ          XY          YZ          ZX
  Alpha Z    55.96551    55.96551    55.96551
  Ewald    -158.12513  -158.12513  -158.12513    -0.00000    -0.00000    -0.00000
  Hartree     8.66244     8.66244     8.66244    -0.00000    -0.00000    -0.00000
  E(xc)     -84.17439   -84.17439   -84.17439    -0.00000     0.00000    -0.00000
  Local     -25.80096   -25.80096   -25.80096    -0.00000     0.00000    -0.00000
  n-local    34.68740    34.54499    34.30269     0.72697     0.91210     0.74417
  augment    29.54124    29.54124    29.54124     0.00000    -0.00000     0.00000
  Kinetic   132.86535   134.17112   151.19900     3.14049     7.02105     3.69106
  Fock        0.00000     0.00000     0.00000     0.00000     0.00000     0.00000
  Total      -0.00779    -0.00779    -0.00779     0.00000    -0.00000    -0.00000
  in kB      -0.06115    -0.06115    -0.06115     0.00000    -0.00000    -0.00000

 VOLUME and BASIS-vectors are now :
  energy-cutoff  :      700.00
  volume of cell :      203.99
      direct lattice vectors                 reciprocal lattice vectors
     5.886645347  0.000000000  0.000000000     0.169876040 -0.000000000  0.000000000
     0.000000000  5.886645347  0.000000000     0.000000000  0.169876040  0.000000000
    -0.000000000  0.000000000  5.886645347    -0.000000000 -0.000000000  0.169876040

  length of vectors
     5.886645347  5.886645347  5.886645347     0.169876040  0.169876040  0.169876040

 FORCES acting on ions
    electron-ion (+dipol)            ewald-force                    non-local-force                 convergence-correction
   -.103E-13 0.557E-13 0.168E-12   -.178E-14 0.000E+00 0.178E-14   0.126E-16 -.802E-17 -.325E-17   -.148E-14 0.793E-16 0.880E-15
   0.260E-13 -.158E-13 -.105E-12   -.377E-14 -.353E-14 -.178E-14   -.716E-17 0.455E-17 -.412E-17   -.847E-15 0.198E-15 0.208E-15
   -.302E-14 0.122E-12 0.988E-13   0.178E-14 0.533E-14 0.355E-14   0.152E-17 0.867E-18 0.152E-17   -.147E-14 -.572E-16 0.992E-15
   0.115E-13 0.117E-12 0.136E-13   0.218E-15 0.178E-14 -.653E-17   -.412E-17 -.846E-17 0.000E+00   -.813E-15 0.373E-15 -.190E-15
   -.103E-13 0.421E-13 -.787E-13   0.000E+00 -.178E-14 0.000E+00   0.802E-17 -.260E-17 0.325E-17   0.730E-15 0.133E-15 0.859E-15
   0.121E-13 -.120E-14 0.429E-14   0.178E-14 -.534E-14 -.356E-14   -.932E-17 0.106E-16 0.434E-18   -.235E-15 0.249E-15 -.308E-15
   -.109E-13 -.294E-13 0.423E-14   0.178E-14 0.355E-14 0.178E-14   0.564E-17 0.239E-17 0.325E-17   0.853E-15 -.148E-16 0.791E-15
   0.115E-13 0.424E-14 -.162E-14   0.353E-14 -.882E-17 -.180E-14   -.282E-17 -.217E-18 -.369E-17   -.214E-15 0.539E-15 0.223E-15
   0.266E-13 0.295E-12 0.104E-12   0.354E-14 0.132E-16 -.395E-16   0.434E-17 -.867E-18 -.260E-17   -.348E-14 0.150E-14 0.345E-14

 POSITION                                       TOTAL-FORCE (eV/Angst)
      4.41498      4.41498      4.41498         0.000000     -0.000000      0.000000
      2.94332     -0.00000      0.00000        -0.000000     -0.000000     -0.000000
      4.41498      1.47166      1.47166         0.000000     -0.000000      0.000000
      2.94332      2.94332      2.94332        -0.000000      0.000000     -0.000000
      1.47166      4.41498      1.47166         0.000000      0.000000      0.000000
     -0.00000     -0.00000      2.94332        -0.000000     -0.000000     -0.000000
      1.47166      1.47166      4.41498         0.000000     -0.000000      0.000000
     -0.00000      2.94332      0.00000        -0.000000     -0.000000     -0.000000
    total drift:                                0.000000      0.000000      0.000000

  FREE ENERGIE OF THE ION-ELECTRON SYSTEM (eV)
  free  energy   TOTEN  =       -20.99515249 eV

  energy  without entropy=      -20.96898739  energy(sigma->0) =      -20.98206994

 d Force = 0.0000000E+00[ 0.000E+00, 0.000E+00]  d Energy = 0.4298852E-03-0.430E-03
 d Force = 0.0000000E+00[ 0.000E+00, 0.000E+00]  d Ewald  =-0.7098345E+00 0.710E+00

 reached required accuracy - stopping structural energy minimisation