 vasp.5.3.3 18Dez12 (build Dec 13 2014 13:36:02) complex

 executed on             LinuxIFC date 2018.11.28  13:04:00

 INCAR:
 POTCAR:   PAW_PBE Zn 06Sep2000
 POTCAR:   PAW_PBE Te 08Apr2002

 POTCAR:   PAW_PBE Zn 06Sep2000
   VRHFIN =Zn: d10 p2

   TITEL  = PAW_PBE Zn 06Sep2000
   POMASS =   65.390; ZVAL   =   12.000    mass and valenz
   ENMAX  =  276.727; ENMIN  =  207.545 eV
   QCUT   =   -4.510; QGAM   =    9.020    optimization parameters

   Description
     l     E      TYP  RCUT    TYP  RCUT
     2   .000     23  2.300
     2   .000     23  2.300
     0   .000     23  2.300
     0   .000     23  2.300
     1  -.200     23  2.300
     1   .000     23  2.300
     3   .000      7   .000

 POTCAR:   PAW_PBE Te 08Apr2002
   VRHFIN =Te: s2p4

   TITEL  = PAW_PBE Te 08Apr2002
   POMASS =  127.600; ZVAL   =    6.000    mass and valenz
   ENMAX  =  174.982; ENMIN  =  131.236 eV
   QCUT   =   -3.586; QGAM   =    7.172    optimization parameters

   Description
     l     E      TYP  RCUT    TYP  RCUT
     0   .000     23  2.300
     0   .000     23  2.300
     1   .000     23  2.300
     1   .000     23  2.300
     2   .000     23  2.300
     3  -.100     23  2.300

 Optimization of the real space projectors (new method)

 maximal supplied QI-value         = 16.25
 optimisation between [QCUT,QGAM] = [ 11.54, 23.24] = [ 37.28,151.24] Ry
 Optimized for a Real-space Cutoff    1.49 Angstroem

   l    n(q)    QCUT    max X(q) W(low)/X(q) W(high)/X(q)  e(spline)
   2      9    11.539     5.523    0.17E-04    0.12E-04    0.43E-07
   2      9    11.539     9.671    0.18E-03    0.96E-04    0.20E-06
   0     10    11.539    11.246    0.19E-04    0.18E-05    0.16E-07
   0     10    11.539    34.692    0.51E-04    0.25E-04    0.27E-06
   1     10    11.539     4.877    0.13E-04    0.16E-04    0.26E-07
   1     10    11.539     6.599    0.48E-04    0.86E-04    0.10E-06
 Optimization of the real space projectors (new method)

 maximal supplied QI-value         = 16.25
 optimisation between [QCUT,QGAM] = [ 11.54, 23.24] = [ 37.28,151.24] Ry
 Optimized for a Real-space Cutoff    1.36 Angstroem

   l    n(q)    QCUT    max X(q) W(low)/X(q) W(high)/X(q)  e(spline)
   0      9    11.539     7.090    0.13E-04    0.25E-05    0.51E-08
   0      9    11.539   101.654    0.53E-04    0.69E-04    0.12E-06
   1      9    11.539     5.276    0.20E-04    0.98E-05    0.24E-07
   1      9    11.539    81.891    0.24E-03    0.13E-04    0.15E-06
   2      9    11.539     5.599    0.30E-04    0.97E-04    0.54E-07
 PAW_PBE Zn 06Sep2000                   :
 PAW_PBE Te 08Apr2002                   :

 POSCAR: MP POSCAR:
  positions in direct lattice
 exchange correlation table for  LEXCH =        8
   RHO(1)=    0.500       N(1)  =     2000
   RHO(2)=  100.500       N(2)  =     4000

 ion  position               nearest neighbor table
   1  0.000  0.000  0.000-   2 2.68   2 2.68   2 2.68   2 2.68
   2  0.250  0.250  0.250-   1 2.68   1 2.68   1 2.68   1 2.68

  LATTYP: Found a face centered cubic cell.
 ALAT       =     6.1848268414

  Lattice vectors:

 A1 = (   3.7874170000,   0.0000000000,   2.1866660000)
 A2 = (   1.2624720000,   3.5708110000,   2.1866660000)
 A3 = (   0.0000000000,   0.0000000000,   4.3733330000)

Analysis of symmetry for initial positions (statically):
 Subroutine PRICEL returns:
 Original cell was already a primitive cell.

 Routine SETGRP: Setting up the symmetry group for a
 face centered cubic supercell.

 Subroutine GETGRP returns: Found 24 space group operations
 (whereof 24 operations were pure point group operations)
 out of a pool of 48 trial point group operations.

The static configuration has the point symmetry T_d .

Analysis of symmetry for dynamics (positions and initial velocities):
 Subroutine PRICEL returns:
 Original cell was already a primitive cell.

 Routine SETGRP: Setting up the symmetry group for a
 face centered cubic supercell.

 Subroutine GETGRP returns: Found 24 space group operations
 (whereof 24 operations were pure point group operations)
 out of a pool of 48 trial point group operations.

The dynamic configuration has the point symmetry T_d .

 irot  :   1
 isymop:   1   0   0
           0   1   0
           0   0   1

 gtrans:     0.0000000     0.0000000     0.0000000

 ptrans:     0.0000000     0.0000000     0.0000000
 rotmap:
 (   1->   1)  (   2->   2)

[...]

 irot  :  24
 isymop:   0   0   1
           0   1   0
           1   0   0

 gtrans:     0.0000000     0.0000000     0.0000000

 ptrans:     0.0000000     0.0000000     0.0000000
 rotmap:
 (   1->   1)  (   2->   2)

 KPOINTS: k-points : CUBIC - FCC
  interpolating k-points between supplied coordinates
  k-points in reciprocal lattice
Space group operators:
 irot       det(A)        alpha          n_x          n_y          n_z        tau_x        tau_y        tau_z
    1     1.000000     0.000000     1.000000     0.000000     0.000000     0.000000     0.000000     0.000000
    2     1.000000   120.000000    -0.471405    -0.333333    -0.816497     0.000000     0.000000     0.000000
    3     1.000000   120.000000     0.471404     0.333334     0.816497     0.000000     0.000000     0.000000
    4    -1.000000    90.000000    -0.816497    -0.577350     0.000000     0.000000     0.000000     0.000000
    5    -1.000000   180.000000     0.866025     0.000000     0.500000     0.000000     0.000000     0.000000
    6    -1.000000    90.000000     0.408248    -0.577350     0.707107     0.000000     0.000000     0.000000
    7     1.000000   180.000000     0.816497     0.577350     0.000000     0.000000     0.000000     0.000000
    8     1.000000   120.000000     0.942809    -0.333333     0.000000     0.000000     0.000000     0.000000
    9     1.000000   120.000000     0.000000    -1.000000    -0.000000     0.000000     0.000000     0.000000
   10    -1.000000    90.000000     0.816497     0.577350    -0.000000     0.000000     0.000000     0.000000
   11    -1.000000    90.000000     0.408248    -0.577350    -0.707107     0.000000     0.000000     0.000000
   12    -1.000000   179.999999     0.288675     0.816497     0.500000     0.000000     0.000000     0.000000
   13     1.000000   120.000000     0.000000     1.000000    -0.000000     0.000000     0.000000     0.000000
   14     1.000000   120.000000     0.471405     0.333333    -0.816497     0.000000     0.000000     0.000000
   15     1.000000   180.000000    -0.408248     0.577350     0.707107     0.000000     0.000000     0.000000
   16    -1.000000    90.000000    -0.408248     0.577350    -0.707107     0.000000     0.000000     0.000000
   17    -1.000000   180.000000     0.000000     0.000000     1.000000     0.000000     0.000000     0.000000
   18    -1.000000    90.000000    -0.408248     0.577350     0.707107     0.000000     0.000000     0.000000
   19     1.000000   120.000000    -0.942809     0.333333     0.000000     0.000000     0.000000     0.000000
   20     1.000000   180.000000    -0.408248     0.577350    -0.707107     0.000000     0.000000     0.000000
   21     1.000000   120.000000    -0.471404    -0.333333     0.816497     0.000000     0.000000     0.000000
   22    -1.000000   180.000000     0.288675     0.816497    -0.500000     0.000000     0.000000     0.000000
   23    -1.000000   180.000000     0.577350    -0.816497     0.000000     0.000000     0.000000     0.000000
   24    -1.000000   180.000000     0.866025     0.000000    -0.500000     0.000000     0.000000     0.000000

 I would recommend the setting:
   dimension x,y,z NGX =    33 NGY =   33 NGZ =   33
 SYSTEM =  unknown system
 POSCAR =  MP POSCAR:

 Startparameter for this run:
   NWRITE =      2    write-flag & timer
   PREC   = accura    normal or accurate (medium, high low for compatibility)
   ISTART =      1    job   : 0-new  1-cont  2-samecut
   ICHARG =     11    charge: 1-file 2-atom 10-const
   ISPIN  =      1    spin polarized calculation?
   LNONCOLLINEAR =      F non collinear calculations
   LSORBIT =      F    spin-orbit coupling
   INIWAV =      1    electr: 0-lowe 1-rand  2-diag
   LASPH  =      F    aspherical Exc in radial PAW
   METAGGA=      F    non-selfconsistent MetaGGA calc.

 Electronic Relaxation 1
   ENCUT  =  520.0 eV  38.22 Ry    6.18 a.u.   8.13  8.13  8.13*2*pi/ulx,y,z
   ENINI  =  520.0     initial cutoff
   ENAUG  =  575.9 eV  augmentation charge cutoff
   NELM   =     60;   NELMIN=  2; NELMDL=  0     # of ELM steps
   EDIFF  = 0.1E-05   stopping-criterion for ELM
   LREAL  =      T    real-space projection
   NLSPLINE    = F    spline interpolate recip. space projectors
   LCOMPAT=      F    compatible to vasp.4.4
   GGA_COMPAT  = T    GGA compatible to vasp.4.4-vasp.4.6
   LMAXPAW     = -100 max onsite density
   LMAXMIX     =    4 max onsite mixed and CHGCAR
   VOSKOWN=      0    Vosko Wilk Nusair interpolation
   ROPT   =   -0.00025  -0.00025
 Ionic relaxation
   EDIFFG = 0.1E-04   stopping-criterion for IOM
   NSW    =      0    number of steps for IOM
   NBLOCK =      1;   KBLOCK =      1    inner block; outer block
   IBRION =     -1    ionic relax: 0-MD 1-quasi-New 2-CG
   NFREE  =      1    steps in history (QN), initial steepest desc. (CG)
   ISIF   =      3    stress and relaxation
   IWAVPR =     10    prediction:  0-non 1-charg 2-wave 3-comb
   ISYM   =      1    0-nonsym 1-usesym 2-fastsym
   LCORR  =      T    Harris-Foulkes like correction to forces

   POTIM  = 0.5000    time-step for ionic-motion
   TEIN   =    0.0    initial temperature
   TEBEG  =    0.0;   TEEND  =   0.0 temperature during run
   SMASS  =  -3.00    Nose mass-parameter (am)
   estimated Nose-frequenzy (Omega)   =  0.10E-29 period in steps =****** mass=  -0.437E-27a.u.
   SCALEE = 1.0000    scale energy and forces
   NPACO  =    256;   APACO  = 16.0  distance and # of slots for P.C.
   PSTRESS=    0.0 pullay stress

  Mass of Ions in am
   POMASS =  65.39127.60
  Ionic Valenz
   ZVAL   =  12.00  6.00
  Atomic Wigner-Seitz radii
  virtual crystal weights
   VCA    =   1.00  1.00
   NELECT =      18.0000    total number of electrons
   NUPDOWN=      -1.0000    fix difference up-down

 DOS related values:
   EMIN   = -20.00;   EMAX   = 20.00  energy-range for DOS
   EFERMI =   0.00
   ISMEAR =     0;   SIGMA  =   0.01  broadening in eV -4-tet -1-fermi 0-gaus

 Electronic relaxation 2 (details)
   IALGO  =     38    algorithm
   LDIAG  =      T    sub-space diagonalisation (order eigenvalues)
   LSUBROT=      T    optimize rotation matrix (better conditioning)
   TURBO    =      0    0=normal 1=particle mesh
   IRESTART =      0    0=no restart 2=restart with 2 vectors
   NREBOOT  =      0    no. of reboots
   NMIN     =      0    reboot dimension
   EREF     =   0.00    reference energy to select bands
   IMIX   =      4    mixing-type and parameters
     AMIX     =   0.40;   BMIX     =  1.00
     AMIX_MAG =   1.60;   BMIX_MAG =  1.00
     AMIN     =   0.10
     WC   =   100.;   INIMIX=   1;  MIXPRE=   1;  MAXMIX= -45

 Intra band minimization:
   WEIMIN = 0.0000     energy-eigenvalue tresh-hold
   EBREAK =  0.31E-08  absolut break condition
   DEPER  =   0.30     relativ break condition

   TIME   =   0.40     timestep for ELM

[...]
 k-point 86 :   0.2660 0.7500 0.4840  plane waves:    1602
 k-point 87 :   0.2692 0.7500 0.4808  plane waves:    1601
 k-point 88 :   0.2724 0.7500 0.4776  plane waves:    1602
 k-point 89 :   0.2756 0.7500 0.4744  plane waves:    1603
 k-point 90 :   0.2788 0.7500 0.4712  plane waves:    1603
 k-point 91 :   0.2821 0.7500 0.4679  plane waves:    1603
 k-point 92 :   0.2853 0.7500 0.4647  plane waves:    1599
 k-point 93 :   0.2885 0.7500 0.4615  plane waves:    1599
 k-point 94 :   0.2917 0.7500 0.4583  plane waves:    1599
 k-point 95 :   0.2949 0.7500 0.4551  plane waves:    1597
 k-point 96 :   0.2981 0.7500 0.4519  plane waves:    1595
 k-point 97 :   0.3013 0.7500 0.4487  plane waves:    1595
 k-point 98 :   0.3045 0.7500 0.4455  plane waves:    1597
 k-point 99 :   0.3077 0.7500 0.4423  plane waves:    1597
 k-point ** :   0.3109 0.7500 0.4391  plane waves:    1599
 k-point ** :   0.3141 0.7500 0.4359  plane waves:    1599
 k-point ** :   0.3173 0.7500 0.4327  plane waves:    1599
 k-point ** :   0.3205 0.7500 0.4295  plane waves:    1599
 k-point ** :   0.3237 0.7500 0.4263  plane waves:    1601
 k-point ** :   0.3269 0.7500 0.4231  plane waves:    1604
 k-point ** :   0.3301 0.7500 0.4199  plane waves:    1598
 k-point ** :   0.3333 0.7500 0.4167  plane waves:    1598
 k-point ** :   0.3365 0.7500 0.4135  plane waves:    1598
 k-point ** :   0.3397 0.7500 0.4103  plane waves:    1600
 k-point ** :   0.3429 0.7500 0.4071  plane waves:    1597
 k-point ** :   0.3462 0.7500 0.4038  plane waves:    1597
 k-point ** :   0.3494 0.7500 0.4006  plane waves:    1595
 k-point ** :   0.3526 0.7500 0.3974  plane waves:    1599
 k-point ** :   0.3558 0.7500 0.3942  plane waves:    1599
 k-point ** :   0.3590 0.7500 0.3910  plane waves:    1596
 k-point ** :   0.3622 0.7500 0.3878  plane waves:    1598
 k-point ** :   0.3654 0.7500 0.3846  plane waves:    1598
 k-point ** :   0.3686 0.7500 0.3814  plane waves:    1598
 k-point ** :   0.3718 0.7500 0.3782  plane waves:    1602
 k-point ** :   0.3750 0.7500 0.3750  plane waves:    1608
 k-point ** :   0.3750 0.7500 0.3750  plane waves:    1608
 k-point ** :   0.3654 0.7308 0.3654  plane waves:    1592
 k-point ** :   0.3558 0.7115 0.3558  plane waves:    1592
 k-point ** :   0.3462 0.6923 0.3462  plane waves:    1592
 k-point ** :   0.3365 0.6731 0.3365  plane waves:    1596
 k-point ** :   0.3269 0.6538 0.3269  plane waves:    1596
 k-point ** :   0.3173 0.6346 0.3173  plane waves:    1592
 k-point ** :   0.3077 0.6154 0.3077  plane waves:    1586
 k-point ** :   0.2981 0.5962 0.2981  plane waves:    1586
 k-point ** :   0.2885 0.5769 0.2885  plane waves:    1588
 k-point ** :   0.2788 0.5577 0.2788  plane waves:    1594
 k-point ** :   0.2692 0.5385 0.2692  plane waves:    1590
 k-point ** :   0.2596 0.5192 0.2596  plane waves:    1590
 k-point ** :   0.2500 0.5000 0.2500  plane waves:    1576
 k-point ** :   0.2404 0.4808 0.2404  plane waves:    1580
 k-point ** :   0.2308 0.4615 0.2308  plane waves:    1576
 k-point ** :   0.2212 0.4423 0.2212  plane waves:    1576
 k-point ** :   0.2115 0.4231 0.2115  plane waves:    1580
 k-point ** :   0.2019 0.4038 0.2019  plane waves:    1580
 k-point ** :   0.1923 0.3846 0.1923  plane waves:    1580
 k-point ** :   0.1827 0.3654 0.1827  plane waves:    1586
 k-point ** :   0.1731 0.3462 0.1731  plane waves:    1590
 k-point ** :   0.1635 0.3269 0.1635  plane waves:    1582
 k-point ** :   0.1538 0.3077 0.1538  plane waves:    1584
 k-point ** :   0.1442 0.2885 0.1442  plane waves:    1580
 k-point ** :   0.1346 0.2692 0.1346  plane waves:    1588
 k-point ** :   0.1250 0.2500 0.1250  plane waves:    1592
 k-point ** :   0.1154 0.2308 0.1154  plane waves:    1584
 k-point ** :   0.1058 0.2115 0.1058  plane waves:    1580
 k-point ** :   0.0962 0.1923 0.0962  plane waves:    1580
 k-point ** :   0.0865 0.1731 0.0865  plane waves:    1576
 k-point ** :   0.0769 0.1538 0.0769  plane waves:    1574
 k-point ** :   0.0673 0.1346 0.0673  plane waves:    1578
 k-point ** :   0.0577 0.1154 0.0577  plane waves:    1577
 k-point ** :   0.0481 0.0962 0.0481  plane waves:    1581
 k-point ** :   0.0385 0.0769 0.0385  plane waves:    1587
 k-point ** :   0.0288 0.0577 0.0288  plane waves:    1603
 k-point ** :   0.0192 0.0385 0.0192  plane waves:    1619
 k-point ** :   0.0096 0.0192 0.0096  plane waves:    1627
[...]
 k-point ** :   0.4103 0.5897 0.5000  plane waves:    1586
 k-point ** :   0.4167 0.5833 0.5000  plane waves:    1588
 k-point ** :   0.4231 0.5769 0.5000  plane waves:    1584
 k-point ** :   0.4295 0.5705 0.5000  plane waves:    1586
 k-point ** :   0.4359 0.5641 0.5000  plane waves:    1584
 k-point ** :   0.4423 0.5577 0.5000  plane waves:    1588
 k-point ** :   0.4487 0.5513 0.5000  plane waves:    1588
 k-point ** :   0.4551 0.5449 0.5000  plane waves:    1586
 k-point ** :   0.4615 0.5385 0.5000  plane waves:    1582
 k-point ** :   0.4679 0.5321 0.5000  plane waves:    1584
 k-point ** :   0.4744 0.5256 0.5000  plane waves:    1586
 k-point ** :   0.4808 0.5192 0.5000  plane waves:    1580
 k-point ** :   0.4872 0.5128 0.5000  plane waves:    1580
 k-point ** :   0.4936 0.5064 0.5000  plane waves:    1568
 k-point ** :   0.5000 0.5000 0.5000  plane waves:    1568

 maximum and minimum number of plane-waves per node :      1639     1568

 maximum number of plane-waves:      1639
 maximum index in each direction:
   IXMAX=    8   IYMAX=    8   IZMAX=    8
   IXMIN=   -8   IYMIN=   -8   IZMIN=   -8

 NGX is ok and might be reduce to  34
 NGY is ok and might be reduce to  34
 NGZ is ok and might be reduce to  34

 serial   3D FFT for wavefunctions
 parallel 3D FFT for charge:
    minimum data exchange during FFTs selected (reduces bandwidth)

 initial charge density was supplied:
 number of electron      18.0000013 magnetization
 keeping initial charge density in first step

 Maximum index for non-local projection operator        10641
 Maximum index for augmentation-charges         2200 (set IRDMAX)

 First call to EWALD:  gamma=   0.455
 Maximum number of real-space cells 3x 3x 3
 Maximum number of reciprocal cells 3x 3x 3

 FEWALD executed in parallel

----------------------------------------- Iteration    1(   1)  ---------------------------------------

 eigenvalue-minimisations  : 51280
 total energy-change (2. order) :-0.2120068E+00  (-0.3303012E+02)
 number of electron      18.0000013 magnetization
 augmentation part       18.0000013 magnetization

 Free energy of the ion-electron system (eV)
  alpha Z        PSCENC =        41.44870044
  Ewald energy   TEWEN  =     -1095.15256513
  -1/2 Hartree   DENC   =      -761.72157976
  -exchange  EXHF       =         0.00000000
  -V(xc)+E(xc)   XCENC  =        28.71362733
  PAW double counting   =      1443.73168599    -1582.94664031
  entropy T*S    EENTRO =        -0.00000000
  eigenvalues    EBANDS =       -46.64656478
  atomic energy  EATOM  =      1972.36132945
  free energy    TOTEN  =        -0.21200677 eV

  energy without entropy =       -0.21200677  energy(sigma->0) =       -0.21200677

[...]

----------------------------------------- Iteration    1(   5)  ---------------------------------------

 eigenvalue-minimisations  : 64220
 total energy-change (2. order) :-0.2921829E-06  (-0.2921679E-06)
 number of electron      18.0000013 magnetization
 augmentation part       18.0000013 magnetization

 Free energy of the ion-electron system (eV)
  alpha Z        PSCENC =        41.44870044
  Ewald energy   TEWEN  =     -1095.15256513
  -1/2 Hartree   DENC   =      -761.72157976
  -exchange  EXHF       =         0.00000000
  -V(xc)+E(xc)   XCENC  =        28.71362733
  PAW double counting   =      1443.73168599    -1582.94664031
  entropy T*S    EENTRO =        -0.00000000
  eigenvalues    EBANDS =       -51.63026488
  atomic energy  EATOM  =      1972.36132945
  free energy    TOTEN  =        -5.19570687 eV

  energy without entropy =       -5.19570687  energy(sigma->0) =       -5.19570687

 average (electrostatic) potential at core
  the test charge radii are     0.9521  1.1897
  (the norm of the test charge is              1.0000)
       1 -36.3046       2 -90.9944

 E-fermi :   2.8606     XC(G=0):  -8.7676     alpha+bet : -7.9798

 k-point   1 :       0.0000    0.0000    0.0000
  band No.  band energies     occupation
      1      -8.7163      2.00000
      2      -3.9837      2.00000
      3      -3.9837      2.00000
      4      -3.9837      2.00000
      5      -3.7742      2.00000
      6      -3.7742      2.00000
      7       2.8123      2.00000
      8       2.8123      2.00000
      9       2.8123      2.00000
     10       3.8916      0.00000
     11       7.2467      0.00000
     12       7.2467      0.00000
     13       7.2467      0.00000
     14      10.0989      0.00000
     15      12.3272      0.00000
     16      12.3272      0.00000
     17      13.3920      0.00000
     18      13.3920      0.00000
     19      13.3920      0.00000
     20      16.1802      0.00000
     21      24.2661      0.00000
     22      24.2661      0.00000
     23      24.2661      0.00000
     24      24.8176      0.00000
     25      24.8176      0.00000
     26      24.8176      0.00000
     27      26.0380      0.00000
     28      26.0380      0.00000
     29      26.0380      0.00000
     30      26.4300      0.00000
     31      26.4300      0.00000
     32      32.6863      0.00000
     33      33.0735      0.00000
     34      33.0735      0.00000
     35      33.0735      0.00000
     36      33.5312      0.00000
     37      34.3951      0.00000
     38      34.3951      0.00000
     39      35.6211      0.00000
     40      35.6211      0.00000
     41      35.6211      0.00000
     42      37.3705      0.00000
     43      37.3705      0.00000
     44      37.3705      0.00000
     45      38.9341      0.00000
     46      38.9341      0.00000
     47      38.9341      0.00000
     48      39.1413      0.00000
     49      39.1413      0.00000
     50      39.1413      0.00000
     51      39.5943      0.00000
     52      39.5943      0.00000
     53      39.5943      0.00000
     54      41.3016      0.00000
     55      41.3017      0.00000
     56      42.4134      0.00000
     57      44.5534      0.00000
     58      44.5534      0.00000
     59      44.5534      0.00000
     60      45.2678      0.00000
[...]
     66      52.9357      0.00000
     67      53.9259      0.00000
     68      53.9259      0.00000
     69      53.9259      0.00000
     70      55.2646      0.00000
     71      55.2646      0.00000
     72      55.2646      0.00000
     73      56.0413      0.00000
     74      56.0413      0.00000
     75      56.0413      0.00000
     76      58.1523      0.00000
     77      60.8345      0.00000
     78      61.2712      0.00000
     79      61.2712      0.00000
     80      64.2375      0.00000

[...]

 k-point 320 :       0.5000    0.5000    0.5000
  band No.  band energies     occupation
      1      -7.9227      2.00000
      2      -3.9338      2.00000
      3      -3.9338      2.00000
      4      -3.7687      2.00000
      5      -3.7687      2.00000
      6      -3.6395      2.00000
      7      -2.0949      2.00000
      8       1.9789      2.00000
      9       1.9789      2.00000
     10       4.5538      0.00000
     11       7.8917      0.00000
     12       7.8917      0.00000
     13      10.3624      0.00000
     14      12.1665      0.00000
     15      13.6364      0.00000
     16      13.6364      0.00000
     17      14.5175      0.00000
     18      14.7585      0.00000
     19      14.7585      0.00000
     20      19.6545      0.00000
     21      21.5625      0.00000
     22      21.5625      0.00000
     23      21.5867      0.00000
     24      22.5117      0.00000
     25      22.5117      0.00000
     26      25.0652      0.00000
     27      25.3737      0.00000
     28      26.2887      0.00000
     29      26.4046      0.00000
     30      26.4046      0.00000
     31      27.1699      0.00000
     32      27.1699      0.00000
     33      30.6730      0.00000
     34      30.6730      0.00000
     35      30.7452      0.00000
     36      31.0240      0.00000
     37      31.0240      0.00000
     38      31.8568      0.00000
     39      31.9485      0.00000
     40      33.1404      0.00000
     41      36.5656      0.00000
     42      36.5656      0.00000
     43      37.5128      0.00000
     44      37.5128      0.00000
     45      39.0532      0.00000
     46      39.0532      0.00000
     47      39.2105      0.00000
     48      40.8137      0.00000
     49      40.8137      0.00000
     50      42.2660      0.00000
     51      43.8333      0.00000
     52      44.2346      0.00000
     53      44.2346      0.00000
     54      44.5090      0.00000
     55      44.5090      0.00000
     56      46.9132      0.00000
     57      48.2708      0.00000
     58      48.2708      0.00000
     59      48.6980      0.00000
     60      48.9357      0.00000
[...]
     66      51.7374      0.00000
     67      51.7374      0.00000
     68      52.9368      0.00000
     69      53.0304      0.00000
     70      54.4765      0.00000
     71      56.3586      0.00000
     72      56.3586      0.00000
     73      56.5489      0.00000
     74      56.5489      0.00000
     75      57.0302      0.00000
     76      57.6525      0.00000
     77      57.6526      0.00000
     78      58.0636      0.00000
     79      58.5121      0.00000
     80      59.4319      0.00000

 soft charge-density along one line, spin component           1
         0         1         2         3         4         5         6         7         8         9
 total charge-density along one line

------------------------ aborting loop because EDIFF is reached ----------------------------------------

 total charge

# of ion     s       p       d       tot
  1        0.529   0.393   9.764  10.686
  2        1.336   2.099   0.023   3.458
tot        1.865   2.493   9.787  14.144

  FORCE on cell =-STRESS in cart. coord.  units (eV):
  Direction    XX          YY          ZZ          XY          YZ          ZX
  Alpha Z    41.44870    41.44870    41.44870
  Ewald    -365.05101  -365.05096  -365.05101    -0.00004     0.00004     0.00005
  Hartree   253.71649   253.71650   253.71652    -0.00003    -0.00000    -0.00000
  E(xc)     -95.99280   -95.99280   -95.99280     0.00000     0.00000     0.00000
  Local     -48.89493   -48.89501   -48.89494     0.00010     0.00003     0.00004
  n-local    79.95170    78.70953    76.36288     0.89715    -2.57522    -1.60028
  augment    14.50450    14.50451    14.50448    -0.00002    -0.00003    -0.00005
  Kinetic   123.04169   122.86246   120.40305     0.09643    -2.84297    -1.71262
  Fock        0.00000     0.00000     0.00000     0.00000     0.00000     0.00000
  Total       0.17472     0.17472     0.17472    -0.00000    -0.00000    -0.00000
  in kB       4.73290     4.73290     4.73291    -0.00000    -0.00000    -0.00000

 VOLUME and BASIS-vectors are now :
  energy-cutoff  :      520.00
  volume of cell :       59.15
      direct lattice vectors                 reciprocal lattice vectors
     3.787417000  0.000000000  2.186666000     0.264032189 -0.093349451  0.000000000
     1.262472000  3.570811000  2.186666000     0.000000000  0.280048426  0.000000000
     0.000000000  0.000000000  4.373333000    -0.132016064 -0.093349466  0.228658554

  length of vectors
     4.373332337  4.373332247  4.373333000     0.280048418  0.280048426  0.280048386

 FORCES acting on ions
    electron-ion (+dipol)            ewald-force                    non-local-force                 convergence-correction
   -.753E-05 -.106E-04 0.237E-04   0.134E-04 0.191E-04 -.441E-04   -.239E-16 -.321E-16 -.156E-16   0.680E-07 0.947E-07 -.207E-06
   0.117E-04 0.165E-04 -.371E-04   -.134E-04 -.191E-04 0.441E-04   -.486E-16 -.520E-16 0.118E-15   0.119E-07 0.172E-07 -.404E-07
   0.413E-05 0.589E-05 -.134E-04   0.753E-15 -.543E-15 -.701E-15   -.724E-16 -.841E-16 0.102E-15   0.798E-07 0.112E-06 -.247E-06

 POSITION                                       TOTAL-FORCE (eV/Angst)
      0.00000      0.00000      0.00000        -0.000000     -0.000000     -0.000000
      1.26247      0.89270      2.18667         0.000000      0.000000      0.000000
    total drift:                                0.000004      0.000006     -0.000014

  FREE ENERGIE OF THE ION-ELECTRON SYSTEM (eV)
  free  energy   TOTEN  =        -5.19570687 eV

  energy  without entropy=       -5.19570687  energy(sigma->0) =       -5.19570687

 total charge

# of ion     s       p       d       tot
  1        0.529   0.393   9.764  10.686
  2        1.336   2.099   0.023   3.458
tot        1.865   2.493   9.787  14.144